#Generated by Multiwfn (http://sobereva.com/multiwfn)
&GLOBAL
  PROJECT SLi2
  PRINT_LEVEL LOW
  RUN_TYPE ENERGY
&END GLOBAL

&FORCE_EVAL
  METHOD Quickstep
  &SUBSYS
    &CELL
      A    10.45680000     0.00000000     0.00000000
      B     0.00000000     9.08020000     0.00000000
      C     0.00000000     0.00000000    20.76679867
      PERIODIC XY #Direction(s) of applied PBC (geometry aspect)
    &END CELL
    &COORD
      S           4.24271357    4.58417798    6.51315531
      Li          3.16756783    6.62581336    6.02673931
      Li          6.55231774    4.57154961    6.00681426
    &END COORD
    &KIND S
      ELEMENT S
      BASIS_SET DZVP-MOLOPT-SR-GTH-q6
      POTENTIAL GTH-PBE
    &END KIND
    &KIND Li
      ELEMENT Li
      BASIS_SET DZVP-MOLOPT-SR-GTH-q3
      POTENTIAL GTH-PBE
    &END KIND
  &END SUBSYS

  &DFT
    BASIS_SET_FILE_NAME  BASIS_MOLOPT
    POTENTIAL_FILE_NAME  POTENTIAL
#   WFN_RESTART_FILE_NAME Mxene_SLi2-RESTART.kp
    CHARGE    0 #Net charge
    MULTIPLICITY    1 #Spin multiplicity
    &KPOINTS
      SCHEME MONKHORST-PACK  3  3  1
    &END KPOINTS
    &QS
      EPS_DEFAULT 1.0E-11 #Set all EPS_xxx to values such that the energy will be correct up to this value
    &END QS
    &POISSON
      PERIODIC XY #Direction(s) of PBC for calculating electrostatics
      PSOLVER MT #The way to solve Poisson equation
    &END POISSON
    &XC
      &XC_FUNCTIONAL PBE
      &END XC_FUNCTIONAL
      &VDW_POTENTIAL
        POTENTIAL_TYPE PAIR_POTENTIAL
        &PAIR_POTENTIAL
          PARAMETER_FILE_NAME dftd3.dat
          TYPE DFTD3(BJ)
          REFERENCE_FUNCTIONAL PBE
          #CALCULATE_C9_TERM T #Calculate C9-related three-body term, more accurate for large system
        &END PAIR_POTENTIAL
      &END VDW_POTENTIAL
    &END XC
    &MGRID
      CUTOFF  350
      REL_CUTOFF  50
    &END MGRID
    &SCF
      MAX_SCF 128
      EPS_SCF 5.0E-06 #Convergence threshold of density matrix of inner SCF
#     SCF_GUESS RESTART #Use wavefunction from WFN_RESTART_FILE_NAME file as initial guess
#     IGNORE_CONVERGENCE_FAILURE #Continue calculation even if SCF not converged, works for version >= 2024.1
      &DIAGONALIZATION
        ALGORITHM STANDARD #Algorithm for diagonalization
      &END DIAGONALIZATION
      &MIXING #How to mix old and new density matrices
        METHOD BROYDEN_MIXING #PULAY_MIXING is also a good alternative
        ALPHA 0.4 #Default. Mixing 40% of new density matrix with the old one
        NBROYDEN 8 #Default is 4. Number of previous steps stored for the actual mixing scheme
      &END MIXING
      &PRINT
        &RESTART #Note: Use "&RESTART OFF" can prevent generating .wfn file
          BACKUP_COPIES 0 #Maximum number of backup copies of wfn file. 0 means never
        &END RESTART
      &END PRINT
    &END SCF
    &PRINT
      &E_DENSITY_CUBE
        STRIDE 1 #Stride of exported cube file
      &END E_DENSITY_CUBE
    &END PRINT
  &END DFT
&END FORCE_EVAL
