#Generated by Multiwfn (http://sobereva.com/multiwfn)
&GLOBAL
  PROJECT test
  PRINT_LEVEL LOW
  RUN_TYPE ENERGY
&END GLOBAL

&FORCE_EVAL
  METHOD Quickstep
  &SUBSYS
    &CELL
      A    10.45680000     0.00000000     0.00000000
      B     0.00000000     9.08020000     0.00000000
      C     0.00000000     0.00000000    23.90011320
      PERIODIC XY #Direction(s) of applied PBC (geometry aspect)
    &END CELL
    &COORD
      Ti         10.49287181    0.00013951    3.64119215
      Ti          2.63908493    1.51185285    3.62054198
      Ti          1.79386404    0.00000000    1.03838337
      Ti          4.40775034    1.51336667    1.03770920
      C           0.79147519    1.51336667    2.34200749
      C           3.40515235   -0.00000000    2.34268165
      O           1.68379251   -0.00110750    4.55437654
      O           4.28711812    1.50347758    4.53627783
      O          10.38799426    0.00000000    0.12992418
      O           2.54560339    1.51336667    0.12975587
      Ti          5.27034064    0.00627319    3.63244864
      Ti          7.88140003    1.51133013    3.64191138
      Ti          7.02226404   -0.00000000    1.03838337
      Ti          9.63615034    1.51336667    1.03770920
      C           6.01987519    1.51336667    2.34200749
      C           8.63355235   -0.00000000    2.34268165
      O           6.93590985    0.00249055    4.55337536
      O           9.53828113    1.51363395    4.55504604
      O           5.15959426    0.00000000    0.12992418
      O           7.77400339    1.51336667    0.12975587
      Ti         10.49079496    3.02944986    3.64414943
      Ti          2.65422437    4.53377473    3.60739994
      Ti          1.79386404    3.02673333    1.03838337
      Ti          4.40775034    4.54010000    1.03770920
      C           0.79147519    4.54010000    2.34200749
      C           3.40515235    3.02673333    2.34268165
      O           1.68030605    3.02809161    4.54696670
      O           4.33076981    4.52795644    4.48830357
      O          10.38799426    3.02673333    0.12992418
      O           2.54560339    4.54010000    0.12975587
      Ti          5.27493680    3.02531125    3.62565644
      Ti          7.89818909    4.53643719    3.59296333
      Ti          7.02226404    3.02673333    1.03838337
      Ti          9.63615034    4.54010000    1.03770920
      C           6.01987519    4.54010000    2.34200749
      C           8.63355235    3.02673333    2.34268165
      O           6.94025568    3.02343666    4.53398369
      O           9.53982375    4.53982296    4.54918755
      O           5.15959426    3.02673333    0.12992418
      O           7.77400339    4.54010000    0.12975587
      Ti         10.49742995    6.05273771    3.64388046
      Ti          2.64789074    7.57018407    3.61402078
      Ti          1.79386404    6.05346667    1.03838337
      Ti          4.40775034    7.56683333    1.03770920
      C           0.79147519    7.56683333    2.34200749
      C           3.40515235    6.05346667    2.34268165
      O           1.68702610    6.05200164    4.55120656
      O           4.32861438    7.57387162    4.49188053
      O          10.38799426    6.05346667    0.12992418
      O           2.54560339    7.56683333    0.12975587
      Ti          5.27429520    6.05471627    3.58890997
      Ti          7.88502208    7.57736881    3.63698167
      Ti          7.02226404    6.05346667    1.03838337
      Ti          9.63615034    7.56683333    1.03770920
      C           6.01987519    7.56683333    2.34200749
      C           8.63355235    6.05346667    2.34268165
      O           6.93623057    6.06847872    4.47436101
      O           9.53949822    7.56647255    4.55383105
      O           5.15959426    6.05346667    0.12992418
      O           7.77400339    7.56683333    0.12975587
      S           3.33590221    4.53029409    8.00615194
      S           3.90009541    6.19334857    6.72992702
      S           5.06131165    7.41750810    7.73146943
      S           7.19529649    6.65108015    7.60295698
      S           7.13461207    4.90408833    6.70008495
      S           6.65678923    3.33553139    8.07981247
      S           5.54613667    2.05677134    7.08391980
      S           3.42679058    2.81831648    7.04472587
    &END COORD
    &KIND Ti
      ELEMENT Ti
      BASIS_SET DZVP-MOLOPT-SR-GTH-q12
      POTENTIAL GTH-PBE
    &END KIND
    &KIND C
      ELEMENT C
      BASIS_SET DZVP-MOLOPT-SR-GTH-q4
      POTENTIAL GTH-PBE
    &END KIND
    &KIND O
      ELEMENT O
      BASIS_SET DZVP-MOLOPT-SR-GTH-q6
      POTENTIAL GTH-PBE
    &END KIND
    &KIND S
      ELEMENT S
      BASIS_SET DZVP-MOLOPT-SR-GTH-q6
      POTENTIAL GTH-PBE
    &END KIND
  &END SUBSYS

  &DFT
    BASIS_SET_FILE_NAME  BASIS_MOLOPT
    POTENTIAL_FILE_NAME  POTENTIAL
#   WFN_RESTART_FILE_NAME test-RESTART.kp
    CHARGE    0 #Net charge
    MULTIPLICITY    1 #Spin multiplicity
    &KPOINTS
      SCHEME MONKHORST-PACK  3  3  1
    &END KPOINTS
    &QS
      EPS_DEFAULT 1.0E-11 #Set all EPS_xxx to values such that the energy will be correct up to this value
    &END QS
    &POISSON
      PERIODIC XY #Direction(s) of PBC for calculating electrostatics
      PSOLVER MT #The way to solve Poisson equation
    &END POISSON
    &XC
      &XC_FUNCTIONAL PBE
      &END XC_FUNCTIONAL
      &VDW_POTENTIAL
        POTENTIAL_TYPE PAIR_POTENTIAL
        &PAIR_POTENTIAL
          PARAMETER_FILE_NAME dftd3.dat
          TYPE DFTD3(BJ)
          REFERENCE_FUNCTIONAL PBE
          #CALCULATE_C9_TERM T #Calculate C9-related three-body term, more accurate for large system
        &END PAIR_POTENTIAL
      &END VDW_POTENTIAL
    &END XC
    &MGRID
      CUTOFF  400
      REL_CUTOFF  55
    &END MGRID
    &SCF
      MAX_SCF 128
      EPS_SCF 5.0E-06 #Convergence threshold of density matrix of inner SCF
#     SCF_GUESS RESTART #Use wavefunction from WFN_RESTART_FILE_NAME file as initial guess
#     IGNORE_CONVERGENCE_FAILURE #Continue calculation even if SCF not converged, works for version >= 2024.1
      &DIAGONALIZATION
        ALGORITHM STANDARD #Algorithm for diagonalization
      &END DIAGONALIZATION
      &MIXING #How to mix old and new density matrices
        METHOD BROYDEN_MIXING #PULAY_MIXING is also a good alternative
        ALPHA 0.4 #Default. Mixing 40% of new density matrix with the old one
        NBROYDEN 8 #Default is 4. Number of previous steps stored for the actual mixing scheme
      &END MIXING
      &PRINT
        &RESTART #Note: Use "&RESTART OFF" can prevent generating .wfn file
          BACKUP_COPIES 0 #Maximum number of backup copies of wfn file. 0 means never
        &END RESTART
      &END PRINT
    &END SCF
    &PRINT
      &MO_MOLDEN #Exporting .molden file containing wavefunction information
        NDIGITS 9 #Output orbital coefficients if absolute value is larger than 1E-9
      &END MO_MOLDEN
      &E_DENSITY_CUBE
        STRIDE 1 #Stride of exported cube file
      &END E_DENSITY_CUBE
    &END PRINT
  &END DFT
&END FORCE_EVAL
