#Generated by Multiwfn (http://sobereva.com/multiwfn)
&GLOBAL
  PROJECT Mxene_S2Li2
  PRINT_LEVEL LOW
  RUN_TYPE ENERGY
&END GLOBAL

&FORCE_EVAL
  METHOD Quickstep
  &SUBSYS
    &CELL
      A    10.45680000     0.00000000     0.00000000
      B     0.00000000     9.08020000     0.00000000
      C     0.00000000     0.00000000    22.55241122
      PERIODIC XY #Direction(s) of applied PBC (geometry aspect)
    &END CELL
    &COORD
      Ti         10.49807306    9.08017897    3.64031955
      Ti          2.64834708    1.51168698    3.63269099
      Ti          1.79386404    0.00000000    1.03838332
      Ti          4.40775034    1.51336667    1.03770922
      C           0.79147519    1.51336667    2.34200768
      C           3.40515235   -0.00000000    2.34268178
      O           1.68081830   -0.00199364    4.56053818
      O           4.28257320    1.51096695    4.56118432
      O          10.38799426   -0.00000000    0.12992424
      O           2.54560339    1.51336667    0.12975598
      Ti          5.27536167    9.08789231    3.61839934
      Ti          7.88886956    1.50302614    3.63719253
      Ti          7.02226404    0.00000000    1.03838332
      Ti          9.63615034    1.51336667    1.03770922
      C           6.01987519    1.51336667    2.34200768
      C           8.63355235   -0.00000000    2.34268178
      O           6.92700840    9.07787954    4.55975945
      O           9.53347637    1.51445785    4.55848506
      O           5.15959426    0.00000000    0.12992424
      O           7.77400339    1.51336667    0.12975598
      Ti         10.49542047    3.03133369    3.63629978
      Ti          2.66025781    4.53894984    3.65034625
      Ti          1.79386404    3.02673333    1.03838332
      Ti          4.40775034    4.54010000    1.03770922
      C           0.79147519    4.54010000    2.34200768
      C           3.40515235    3.02673333    2.34268178
      O           1.68380923    3.02734599    4.55814120
      O           4.34269853    4.53759838    4.57657629
      O          10.38799426    3.02673333    0.12992424
      O           2.54560339    4.54010000    0.12975598
      Ti          5.25198757    3.01054860    3.57988132
      Ti          7.88537029    4.54121985    3.58441297
      Ti          7.02226404    3.02673333    1.03838332
      Ti          9.63615034    4.54010000    1.03770922
      C           6.01987519    4.54010000    2.34200768
      C           8.63355235    3.02673333    2.34268178
      O           6.86262176    3.09905000    4.62995629
      O           9.53328014    4.54111209    4.55157824
      O           5.15959426    3.02673333    0.12992424
      O           7.77400339    4.54010000    0.12975598
      Ti         10.49314108    6.04105690    3.64121215
      Ti          2.63875873    7.56190171    3.58777493
      Ti          1.79386404    6.05346667    1.03838332
      Ti          4.40775034    7.56683333    1.03770922
      C           0.79147519    7.56683333    2.34200768
      C           3.40515235    6.05346667    2.34268178
      O           1.68544043    6.05596756    4.55709925
      O           4.27178880    7.57566916    4.60759903
      O          10.38799426    6.05346667    0.12992424
      O           2.54560339    7.56683333    0.12975598
      Ti          5.26821017    6.05096806    3.57116967
      Ti          7.88449695    7.56170291    3.63836889
      Ti          7.02226404    6.05346667    1.03838332
      Ti          9.63615034    7.56683333    1.03770922
      C           6.01987519    7.56683333    2.34200768
      C           8.63355235    6.05346667    2.34268178
      O           6.87827646    5.99918219    4.57614817
      O           9.53323973    7.56525899    4.55671241
      O           5.15959426    6.05346667    0.12992424
      O           7.77400339    7.56683333    0.12975598
      Li          6.09226453    4.38088688    6.02076511
      Li          4.16374230    7.50398757    6.48810004
      S           4.23778687    5.32673997    7.40024813
      S           5.98657873    6.35214869    7.40596159
    &END COORD
    &KIND Ti
      ELEMENT Ti
      BASIS_SET DZVP-MOLOPT-SR-GTH-q12
      POTENTIAL GTH-PBE
    &END KIND
    &KIND C
      ELEMENT C
      BASIS_SET DZVP-MOLOPT-SR-GTH-q4
      POTENTIAL GTH-PBE
    &END KIND
    &KIND O
      ELEMENT O
      BASIS_SET DZVP-MOLOPT-SR-GTH-q6
      POTENTIAL GTH-PBE
    &END KIND
    &KIND Li
      ELEMENT Li
      BASIS_SET DZVP-MOLOPT-SR-GTH-q3
      POTENTIAL GTH-PBE
    &END KIND
    &KIND S
      ELEMENT S
      BASIS_SET DZVP-MOLOPT-SR-GTH-q6
      POTENTIAL GTH-PBE
    &END KIND
  &END SUBSYS

  &DFT
    BASIS_SET_FILE_NAME  BASIS_MOLOPT
    POTENTIAL_FILE_NAME  POTENTIAL
#   WFN_RESTART_FILE_NAME Mxene_S2Li2-RESTART.kp
    CHARGE    0 #Net charge
    MULTIPLICITY    1 #Spin multiplicity
    &KPOINTS
      SCHEME MONKHORST-PACK  3  3  1
    &END KPOINTS
    &QS
      EPS_DEFAULT 1.0E-11 #Set all EPS_xxx to values such that the energy will be correct up to this value
    &END QS
    &POISSON
      PERIODIC XY #Direction(s) of PBC for calculating electrostatics
      PSOLVER MT #The way to solve Poisson equation
    &END POISSON
    &XC
      &XC_FUNCTIONAL PBE
      &END XC_FUNCTIONAL
      &VDW_POTENTIAL
        POTENTIAL_TYPE PAIR_POTENTIAL
        &PAIR_POTENTIAL
          PARAMETER_FILE_NAME dftd3.dat
          TYPE DFTD3(BJ)
          REFERENCE_FUNCTIONAL PBE
          #CALCULATE_C9_TERM T #Calculate C9-related three-body term, more accurate for large system
        &END PAIR_POTENTIAL
      &END VDW_POTENTIAL
    &END XC
    &MGRID
      CUTOFF  350
      REL_CUTOFF  50
    &END MGRID
    &SCF
      MAX_SCF 128
      EPS_SCF 5.0E-06 #Convergence threshold of density matrix of inner SCF
#     SCF_GUESS RESTART #Use wavefunction from WFN_RESTART_FILE_NAME file as initial guess
#     IGNORE_CONVERGENCE_FAILURE #Continue calculation even if SCF not converged, works for version >= 2024.1
      &DIAGONALIZATION
        ALGORITHM STANDARD #Algorithm for diagonalization
      &END DIAGONALIZATION
      &MIXING #How to mix old and new density matrices
        METHOD BROYDEN_MIXING #PULAY_MIXING is also a good alternative
        ALPHA 0.4 #Default. Mixing 40% of new density matrix with the old one
        NBROYDEN 8 #Default is 4. Number of previous steps stored for the actual mixing scheme
      &END MIXING
      &PRINT
        &RESTART #Note: Use "&RESTART OFF" can prevent generating .wfn file
          BACKUP_COPIES 0 #Maximum number of backup copies of wfn file. 0 means never
        &END RESTART
      &END PRINT
    &END SCF
    &PRINT
      &E_DENSITY_CUBE
        STRIDE 1 #Stride of exported cube file
      &END E_DENSITY_CUBE
    &END PRINT
  &END DFT
&END FORCE_EVAL
