#Generated by Multiwfn (http://sobereva.com/multiwfn)
&GLOBAL
  PROJECT freq
  PRINT_LEVEL MEDIUM
  RUN_TYPE VIBRATIONAL_ANALYSIS
&END GLOBAL

&FORCE_EVAL
  METHOD Quickstep
  &SUBSYS
    &CELL
      A    10.45680000     0.00000000     0.00000000
      B     0.00000000     9.08020000     0.00000000
      C     0.00000000     0.00000000    20.82710944
      PERIODIC XY #Direction(s) of applied PBC (geometry aspect)
    &END CELL
    &COORD
      Ti         10.49980997    9.07422480    3.63731573
      Ti          2.64922699    1.50564763    3.63128419
      Ti          1.79386404   -0.00000000    1.03838332
      Ti          4.40775034    1.51336667    1.03770922
      C           0.79147519    1.51336667    2.34200768
      C           3.40515235   -0.00000000    2.34268178
      O           1.68213336   -0.00134931    4.55906984
      O           4.28502724    1.51094582    4.55951044
      O          10.38799426   -0.00000000    0.12992424
      O           2.54560339    1.51336667    0.12975598
      Ti          5.27906203    9.08887302    3.61086027
      Ti          7.88936434    1.49704748    3.63626259
      Ti          7.02226404   -0.00000000    1.03838332
      Ti          9.63615034    1.51336667    1.03770922
      C           6.01987519    1.51336667    2.34200768
      C           8.63355235   -0.00000000    2.34268178
      O           6.92760040    9.07673558    4.55844590
      O           9.53290950    1.51469797    4.55892042
      O           5.15959426    0.00000000    0.12992424
      O           7.77400339    1.51336667    0.12975598
      Ti         10.49721470    3.02530842    3.63813570
      Ti          2.65676377    4.53492636    3.64592972
      Ti          1.79386404    3.02673333    1.03838332
      Ti          4.40775034    4.54010000    1.03770922
      C           0.79147519    4.54010000    2.34200768
      C           3.40515235    3.02673333    2.34268178
      O           1.68312163    3.02747287    4.55969532
      O           4.33551299    4.54048623    4.56787928
      O          10.38799426    3.02673333    0.12992424
      O           2.54560339    4.54010000    0.12975598
      Ti          5.24854381    3.01936442    3.60475229
      Ti          7.89111773    4.53533657    3.56478104
      Ti          7.02226404    3.02673333    1.03838332
      Ti          9.63615034    4.54010000    1.03770922
      C           6.01987519    4.54010000    2.34200768
      C           8.63355235    3.02673333    2.34268178
      O           6.87291470    3.10527834    4.63130741
      O           9.53130008    4.54197632    4.55398819
      O           5.15959426    3.02673333    0.12992424
      O           7.77400339    4.54010000    0.12975598
      Ti         10.49535945    6.03689200    3.64145934
      Ti          2.64366293    7.55575173    3.59512749
      Ti          1.79386404    6.05346667    1.03838332
      Ti          4.40775034    7.56683333    1.03770922
      C           0.79147519    7.56683333    2.34200768
      C           3.40515235    6.05346667    2.34268178
      O           1.68657649    6.05848400    4.55816006
      O           4.27768248    7.57415178    4.61646603
      O          10.38799426    6.05346667    0.12992424
      O           2.54560339    7.56683333    0.12975598
      Ti          5.26905805    6.04203550    3.58105725
      Ti          7.88595322    7.55664993    3.64037981
      Ti          7.02226404    6.05346667    1.03838332
      Ti          9.63615034    7.56683333    1.03770922
      C           6.01987519    7.56683333    2.34200768
      C           8.63355235    6.05346667    2.34268178
      O           6.89792465    6.00909311    4.59852887
      O           9.53402560    7.56605773    4.55713517
      O           5.15959426    6.05346667    0.12992424
      O           7.77400339    7.56683333    0.12975598
      Li          6.51194770    4.48020632    6.10245276
      Li          4.34586326    7.50522322    6.49834310
      S           4.62914903    5.33766786    7.39396197
      S           6.28127561    6.51743964    7.41455269
    &END COORD
    &KIND Ti
      ELEMENT Ti
      BASIS_SET DZVP-MOLOPT-SR-GTH-q12
      POTENTIAL GTH-PBE
    &END KIND
    &KIND C
      ELEMENT C
      BASIS_SET DZVP-MOLOPT-SR-GTH-q4
      POTENTIAL GTH-PBE
    &END KIND
    &KIND O
      ELEMENT O
      BASIS_SET DZVP-MOLOPT-SR-GTH-q6
      POTENTIAL GTH-PBE
    &END KIND
    &KIND Li
      ELEMENT Li
      BASIS_SET DZVP-MOLOPT-SR-GTH-q3
      POTENTIAL GTH-PBE
    &END KIND
    &KIND S
      ELEMENT S
      BASIS_SET DZVP-MOLOPT-SR-GTH-q6
      POTENTIAL GTH-PBE
    &END KIND
  &END SUBSYS

  &DFT
    BASIS_SET_FILE_NAME  BASIS_MOLOPT
    POTENTIAL_FILE_NAME  POTENTIAL
#   WFN_RESTART_FILE_NAME freq-RESTART.wfn
    CHARGE    0 #Net charge
    MULTIPLICITY    1 #Spin multiplicity
    &QS
      EPS_DEFAULT 1.0E-14 #Set all EPS_xxx to values such that the energy will be correct up to this value
    &END QS
    &POISSON
      PERIODIC XY #Direction(s) of PBC for calculating electrostatics
      PSOLVER MT #The way to solve Poisson equation
    &END POISSON
    &XC
      &XC_FUNCTIONAL PBE
      &END XC_FUNCTIONAL
      &VDW_POTENTIAL
        POTENTIAL_TYPE PAIR_POTENTIAL
        &PAIR_POTENTIAL
          PARAMETER_FILE_NAME dftd3.dat
          TYPE DFTD3(BJ)
          REFERENCE_FUNCTIONAL PBE
          #CALCULATE_C9_TERM T #Calculate C9-related three-body term, more accurate for large system
        &END PAIR_POTENTIAL
      &END VDW_POTENTIAL
    &END XC
    &MGRID
      CUTOFF  400
      REL_CUTOFF  55
    &END MGRID
    &SCF
      MAX_SCF 128
      EPS_SCF 1.0E-07 #Convergence threshold of density matrix of inner SCF
#     SCF_GUESS RESTART #Use wavefunction from WFN_RESTART_FILE_NAME file as initial guess
#     IGNORE_CONVERGENCE_FAILURE #Continue calculation even if SCF not converged, works for version >= 2024.1
      &DIAGONALIZATION
        ALGORITHM STANDARD #Algorithm for diagonalization
      &END DIAGONALIZATION
      &MIXING #How to mix old and new density matrices
        METHOD BROYDEN_MIXING #PULAY_MIXING is also a good alternative
        ALPHA 0.4 #Default. Mixing 40% of new density matrix with the old one
        NBROYDEN 8 #Default is 4. Number of previous steps stored for the actual mixing scheme
      &END MIXING
      &PRINT
        &RESTART OFF #Do not generate wfn file to suppress meaningless I/O cost
        &END RESTART
      &END PRINT
    &END SCF
    &PRINT
      &MOMENTS
        PERIODIC T #Use Berry phase formula (T) or simple operator (F), the latter normally applies to isolated systems
      &END MOMENTS
    &END PRINT
  &END DFT
&END FORCE_EVAL

&MOTION
  &CONSTRAINT
    &FIXED_ATOMS #Set atoms to be fixed
      COMPONENTS_TO_FIX XYZ #Which fractional components will be fixed, can be X, Y, Z, XY, XZ, YZ, XYZ
      LIST       1..60
    &END FIXED_ATOMS
  &END CONSTRAINT
  &PRINT
    &RESTART
      BACKUP_COPIES 0 #Maximum number of backing up restart file, 0 means never
    &END RESTART
  &END PRINT
&END MOTION
&VIBRATIONAL_ANALYSIS
  DX 0.01 #Step size of finite difference. This is default (Bohr)
  NPROC_REP 24 #Number of processors to be used per replica. This is default
  TC_PRESSURE 101325 #1 atm. Pressure for calculate thermodynamic data (Pa)
  TC_TEMPERATURE 298.15 #Temperature for calculate thermodynamic data (K)
  THERMOCHEMISTRY #Print thermochemistry information (only valid for isolated systems)
  INTENSITIES T #Calculate IR/Raman intensities
  FULLY_PERIODIC T #Avoiding to project out rotation component from Hessian matrix
  &PRINT
    &MOLDEN_VIB #Output .mol (Molden file) for visualizing vibrational modes
    &END MOLDEN_VIB
  &END PRINT
&END VIBRATIONAL_ANALYSIS
