#Generated by Multiwfn (http://sobereva.com/multiwfn)
&GLOBAL
  PROJECT Ti2CO2_S8
  PRINT_LEVEL LOW
  RUN_TYPE GEO_OPT
&END GLOBAL

&FORCE_EVAL
  METHOD Quickstep
  &SUBSYS
    &CELL
      A    10.45680000     0.00000000     0.00000000
      B     0.00000000     9.08020000     0.00000000
      C     0.00000000     0.00000000    20.82710944
      PERIODIC XY #Direction(s) of applied PBC (geometry aspect)
    &END CELL
    &COORD
      Ti         10.41049436    0.00000000    3.64880190
      Ti          2.56299619    1.51064999    3.62829041
      Ti          1.79386404    0.00000000    1.03838337
      Ti          4.40775034    1.51336667    1.03770920
      C           0.79147519    1.51336667    2.34200749
      C           3.40515235    0.00000000    2.34268165
      O           1.67084334    0.00000000    4.56491243
      O           4.27059717    1.51101284    4.53223051
      O          10.38799426    0.00000000    0.12992418
      O           2.54560339    1.51336667    0.12975587
      Ti          5.17996159    0.00091138    3.63169346
      Ti          7.79187940    1.51135053    3.64238156
      Ti          7.02226404    0.00000000    1.03838337
      Ti          9.63615034    1.51336667    1.03770920
      C           6.01987519    1.51336667    2.34200749
      C           8.63355235    0.00000000    2.34268165
      O           6.87920435    0.00000000    4.56406486
      O           9.52044856    1.51336667    4.56088877
      O           5.15959426    0.00000000    0.12992418
      O           7.77400339    1.51336667    0.12975587
      Ti         10.40839453    3.02546843    3.63534572
      Ti          2.56303174    4.54010000    3.62802195
      Ti          1.79386404    3.02673333    1.03838337
      Ti          4.40775034    4.54010000    1.03770920
      C           0.79147519    4.54010000    2.34200749
      C           3.40515235    3.02673333    2.34268165
      O           1.66799836    3.02673333    4.52504374
      O           4.27244729    4.53714212    4.51945313
      O          10.38799426    3.02673333    0.12992418
      O           2.54560339    4.54010000    0.12975587
      Ti          5.17667335    3.02800444    3.63135197
      Ti          7.79640280    4.54010000    3.62083935
      Ti          7.02226404    3.02673333    1.03838337
      Ti          9.63615034    4.54010000    1.03770920
      C           6.01987519    4.54010000    2.34200749
      C           8.63355235    3.02673333    2.34268165
      O           6.89028155    3.02800971    4.53020987
      O           9.51998533    4.54010000    4.53454557
      O           5.15959426    3.02673333    0.12992418
      O           7.77400339    4.54010000    0.12975587
      Ti         10.41256303    6.05487031    3.64305202
      Ti          2.55958926    7.56844531    3.63574563
      Ti          1.79386404    6.05346667    1.03838337
      Ti          4.40775034    7.56683333    1.03770920
      C           0.79147519    7.56683333    2.34200749
      C           3.40515235    6.05346667    2.34268165
      O           1.67049116    6.05346667    4.56228045
      O           4.27295152    7.56781760    4.52716500
      O          10.38799426    6.05346667    0.12992418
      O           2.54560339    7.56683333    0.12975587
      Ti          5.17312651    6.05346667    3.62233768
      Ti          7.79337587    7.57145649    3.64239663
      Ti          7.02226404    6.05346667    1.03838337
      Ti          9.63615034    7.56683333    1.03770920
      C           6.01987519    7.56683333    2.34200749
      C           8.63355235    6.05346667    2.34268165
      O           6.87939330    6.05752972    4.51876205
      O           9.52083463    7.56683333    4.56127083
      O           5.15959426    6.05346667    0.12992418
      O           7.77400339    7.56683333    0.12975587
      S           3.29670550    4.51316221    8.66939754
      S           3.82065425    6.18820993    6.82223679
      S           4.86399161    7.46219822    7.88767879
      S           7.05420909    5.87279394    7.89099418
      S           6.91262433    4.16339653    6.94504026
      S           6.39913011    3.36211340    8.34575787
      S           5.44823776    2.05467874    7.22702764
      S           3.28370424    2.88352710    7.57606835
    &END COORD
    &KIND Ti
      ELEMENT Ti
      BASIS_SET DZVP-MOLOPT-SR-GTH-q12
      POTENTIAL GTH-PBE
    &END KIND
    &KIND C
      ELEMENT C
      BASIS_SET DZVP-MOLOPT-SR-GTH-q4
      POTENTIAL GTH-PBE
    &END KIND
    &KIND O
      ELEMENT O
      BASIS_SET DZVP-MOLOPT-SR-GTH-q6
      POTENTIAL GTH-PBE
    &END KIND
    &KIND S
      ELEMENT S
      BASIS_SET DZVP-MOLOPT-SR-GTH-q6
      POTENTIAL GTH-PBE
    &END KIND
  &END SUBSYS

  &DFT
    BASIS_SET_FILE_NAME  BASIS_MOLOPT
    POTENTIAL_FILE_NAME  POTENTIAL
#   WFN_RESTART_FILE_NAME Ti2CO2_S8-RESTART.kp
    CHARGE    0 #Net charge
    MULTIPLICITY    1 #Spin multiplicity
    &QS
      EPS_DEFAULT 1.0E-14 #Set all EPS_xxx to values such that the energy will be correct up to this value
#     EXTRAPOLATION USE_PREV_P #Use converged density matrix of last geometry as initial guess
    &END QS
    &POISSON
      PERIODIC XY #Direction(s) of PBC for calculating electrostatics
      PSOLVER MT #The way to solve Poisson equation
    &END POISSON
    &XC
      &XC_FUNCTIONAL PBE
      &END XC_FUNCTIONAL
      &VDW_POTENTIAL
        POTENTIAL_TYPE PAIR_POTENTIAL
        &PAIR_POTENTIAL
          PARAMETER_FILE_NAME dftd3.dat
          TYPE DFTD3(BJ)
          REFERENCE_FUNCTIONAL PBE
          #CALCULATE_C9_TERM T #Calculate C9-related three-body term, more accurate for large system
        &END PAIR_POTENTIAL
      &END VDW_POTENTIAL
    &END XC
    &MGRID
      CUTOFF  400
      REL_CUTOFF  55
    &END MGRID
    &SCF
      MAX_SCF 128
      EPS_SCF 1.0E-07 #Convergence threshold of density matrix of inner SCF
#     SCF_GUESS RESTART #Use wavefunction from WFN_RESTART_FILE_NAME file as initial guess
#     IGNORE_CONVERGENCE_FAILURE #Continue calculation even if SCF not converged, works for version >= 2024.1
      &DIAGONALIZATION
        ALGORITHM STANDARD #Algorithm for diagonalization
      &END DIAGONALIZATION
      &MIXING #How to mix old and new density matrices
        METHOD BROYDEN_MIXING #PULAY_MIXING is also a good alternative
        ALPHA 0.4 #Default. Mixing 40% of new density matrix with the old one
        NBROYDEN 8 #Default is 4. Number of previous steps stored for the actual mixing scheme
      &END MIXING
      &PRINT
        &RESTART #Note: Use "&RESTART OFF" can prevent generating .wfn file
          BACKUP_COPIES 0 #Maximum number of backup copies of wfn file. 0 means never
        &END RESTART
      &END PRINT
    &END SCF
  &END DFT
&END FORCE_EVAL

&MOTION
  &GEO_OPT
    TYPE MINIMIZATION #Search for minimum
    KEEP_SPACE_GROUP F #If T, then space group will be detected and preserved
    OPTIMIZER BFGS #Can also be CG (more robust for difficult cases) or LBFGS
    &BFGS
      TRUST_RADIUS 0.2 #Trust radius (maximum stepsize) in Angstrom
#     RESTART_HESSIAN T #If read initial Hessian, uncomment this line and specify the file in the next line
#     RESTART_FILE_NAME to_be_specified
    &END BFGS
    MAX_ITER 500 #Maximum number of geometry optimization
    MAX_DR 3E-3 #Maximum geometry change
    RMS_DR 1.5E-3 #RMS geometry change
    MAX_FORCE 1E-4 #Maximum force
    RMS_FORCE 3E-4 #RMS force
  &END GEO_OPT
  &CONSTRAINT
    &FIXED_ATOMS #Set atoms to be fixed
      COMPONENTS_TO_FIX XYZ #Which fractional components will be fixed, can be X, Y, Z, XY, XZ, YZ, XYZ
      LIST      3     4     5     6     9    10    13    14    15    16    19    20 \
          23    24    25    26    29    30    33    34    35    36    39    40 \
          43    44    45    46    49    50    53    54    55    56    59    60
    &END FIXED_ATOMS
  &END CONSTRAINT
  &PRINT
    &TRAJECTORY
      FORMAT xyz
    &END TRAJECTORY
    &RESTART
      BACKUP_COPIES 0 #Maximum number of backing up restart file, 0 means never
    &END RESTART
  &END PRINT
&END MOTION
