#Generated by Multiwfn (http://sobereva.com/multiwfn)
&GLOBAL
  PROJECT freq
  PRINT_LEVEL MEDIUM
  RUN_TYPE VIBRATIONAL_ANALYSIS
&END GLOBAL

&FORCE_EVAL
  METHOD Quickstep
  &SUBSYS
    &CELL
      A    10.45680000     0.00000000     0.00000000
      B     0.00000000     9.08020000     0.00000000
      C     0.00000000     0.00000000    20.82710944
      PERIODIC XY #Direction(s) of applied PBC (geometry aspect)
    &END CELL
    &COORD
      Ti         10.50358617    9.08346374    3.63197338
      Ti          2.64708272    1.51054792    3.64306960
      Ti          1.79386404    0.00000000    1.03838332
      Ti          4.40775034    1.51336667    1.03770922
      C           0.79147519    1.51336667    2.34200768
      C           3.40515235    0.00000000    2.34268178
      O           1.68037216   -0.00108228    4.55902072
      O           4.28089589    1.51095049    4.55835835
      O          10.38799426    0.00000000    0.12992424
      O           2.54560339    1.51336667    0.12975598
      Ti          5.27998535    9.08798617    3.64387062
      Ti          7.89376814    1.51079433    3.63730940
      Ti          7.02226404    0.00000000    1.03838332
      Ti          9.63615034    1.51336667    1.03770922
      C           6.01987519    1.51336667    2.34200768
      C           8.63355235   -0.00000000    2.34268178
      O           6.92703259    9.08240068    4.56663585
      O           9.53065851    1.51569871    4.56104242
      O           5.15959426   -0.00000000    0.12992424
      O           7.77400339    1.51336667    0.12975598
      Ti         10.50186506    3.02750643    3.63823431
      Ti          2.65515082    4.50950594    3.56744442
      Ti          1.79386404    3.02673333    1.03838332
      Ti          4.40775034    4.54010000    1.03770922
      C           0.79147519    4.54010000    2.34200768
      C           3.40515235    3.02673333    2.34268178
      O           1.68071212    3.02687680    4.55950686
      O           4.26607979    4.56180529    4.56900740
      O          10.38799426    3.02673333    0.12992424
      O           2.54560339    4.54010000    0.12975598
      Ti          5.26485456    3.02371309    3.59390194
      Ti          7.91591158    4.54110187    3.54816786
      Ti          7.02226404    3.02673333    1.03838332
      Ti          9.63615034    4.54010000    1.03770922
      C           6.01987519    4.54010000    2.34200768
      C           8.63355235    3.02673333    2.34268178
      O           6.87258545    3.09774476    4.56637487
      O           9.53454422    4.54171970    4.55847392
      O           5.15959426    3.02673333    0.12992424
      O           7.77400339    4.54010000    0.12975598
      Ti         10.53201019    6.04903818    3.66130130
      Ti          2.66124341    7.58820485    3.57763957
      Ti          1.79386404    6.05346667    1.03838332
      Ti          4.40775034    7.56683333    1.03770922
      C           0.79147519    7.56683333    2.34200768
      C           3.40515235    6.05346667    2.34268178
      O           1.74788733    6.05162330    4.63267128
      O           4.26374053    7.49209427    4.63134250
      O          10.38799426    6.05346667    0.12992424
      O           2.54560339    7.56683333    0.12975598
      Ti          5.28607020    6.05829049    3.57702114
      Ti          7.90202855    7.56710368    3.63833394
      Ti          7.02226404    6.05346667    1.03838332
      Ti          9.63615034    7.56683333    1.03770922
      C           6.01987519    7.56683333    2.34200768
      C           8.63355235    6.05346667    2.34268178
      O           6.92478420    5.99017177    4.61889025
      O           9.53761747    7.56290656    4.56234546
      O           5.15959426    6.05346667    0.12992424
      O           7.77400339    7.56683333    0.12975598
      S           4.94571834    5.08216309    7.59342375
      S           4.25301721    3.23181412    7.34820682
      S           5.92423245    1.89907751    7.30877368
      S           7.60507006    2.84925512    7.52693118
      Li          3.46741433    6.02053960    5.86871369
      Li          6.78554322    4.68464243    6.06333267
    &END COORD
    &KIND Ti
      ELEMENT Ti
      BASIS_SET DZVP-MOLOPT-SR-GTH-q12
      POTENTIAL GTH-PBE
    &END KIND
    &KIND C
      ELEMENT C
      BASIS_SET DZVP-MOLOPT-SR-GTH-q4
      POTENTIAL GTH-PBE
    &END KIND
    &KIND O
      ELEMENT O
      BASIS_SET DZVP-MOLOPT-SR-GTH-q6
      POTENTIAL GTH-PBE
    &END KIND
    &KIND S
      ELEMENT S
      BASIS_SET DZVP-MOLOPT-SR-GTH-q6
      POTENTIAL GTH-PBE
    &END KIND
    &KIND Li
      ELEMENT Li
      BASIS_SET DZVP-MOLOPT-SR-GTH-q3
      POTENTIAL GTH-PBE
    &END KIND
  &END SUBSYS

  &DFT
    BASIS_SET_FILE_NAME  BASIS_MOLOPT
    POTENTIAL_FILE_NAME  POTENTIAL
#   WFN_RESTART_FILE_NAME freq-RESTART.wfn
    CHARGE    0 #Net charge
    MULTIPLICITY    1 #Spin multiplicity
    &QS
      EPS_DEFAULT 1.0E-14 #Set all EPS_xxx to values such that the energy will be correct up to this value
    &END QS
    &POISSON
      PERIODIC XY #Direction(s) of PBC for calculating electrostatics
      PSOLVER MT #The way to solve Poisson equation
    &END POISSON
    &XC
      &XC_FUNCTIONAL PBE
      &END XC_FUNCTIONAL
      &VDW_POTENTIAL
        POTENTIAL_TYPE PAIR_POTENTIAL
        &PAIR_POTENTIAL
          PARAMETER_FILE_NAME dftd3.dat
          TYPE DFTD3(BJ)
          REFERENCE_FUNCTIONAL PBE
          #CALCULATE_C9_TERM T #Calculate C9-related three-body term, more accurate for large system
        &END PAIR_POTENTIAL
      &END VDW_POTENTIAL
    &END XC
    &MGRID
      CUTOFF  400
      REL_CUTOFF  55
    &END MGRID
    &SCF
      MAX_SCF 128
      EPS_SCF 1.0E-07 #Convergence threshold of density matrix of inner SCF
#     SCF_GUESS RESTART #Use wavefunction from WFN_RESTART_FILE_NAME file as initial guess
#     IGNORE_CONVERGENCE_FAILURE #Continue calculation even if SCF not converged, works for version >= 2024.1
      &DIAGONALIZATION
        ALGORITHM STANDARD #Algorithm for diagonalization
      &END DIAGONALIZATION
      &MIXING #How to mix old and new density matrices
        METHOD BROYDEN_MIXING #PULAY_MIXING is also a good alternative
        ALPHA 0.4 #Default. Mixing 40% of new density matrix with the old one
        NBROYDEN 8 #Default is 4. Number of previous steps stored for the actual mixing scheme
      &END MIXING
      &PRINT
        &RESTART OFF #Do not generate wfn file to suppress meaningless I/O cost
        &END RESTART
      &END PRINT
    &END SCF
    &PRINT
      &MOMENTS
        PERIODIC T #Use Berry phase formula (T) or simple operator (F), the latter normally applies to isolated systems
      &END MOMENTS
    &END PRINT
  &END DFT
&END FORCE_EVAL

&MOTION
  &CONSTRAINT
    &FIXED_ATOMS #Set atoms to be fixed
      COMPONENTS_TO_FIX XYZ #Which fractional components will be fixed, can be X, Y, Z, XY, XZ, YZ, XYZ
      LIST       1..60
    &END FIXED_ATOMS
  &END CONSTRAINT
  &PRINT
    &RESTART
      BACKUP_COPIES 0 #Maximum number of backing up restart file, 0 means never
    &END RESTART
  &END PRINT
&END MOTION
&VIBRATIONAL_ANALYSIS
  DX 0.01 #Step size of finite difference. This is default (Bohr)
  NPROC_REP 24 #Number of processors to be used per replica. This is default
  TC_PRESSURE 101325 #1 atm. Pressure for calculate thermodynamic data (Pa)
  TC_TEMPERATURE 298.15 #Temperature for calculate thermodynamic data (K)
  THERMOCHEMISTRY #Print thermochemistry information (only valid for isolated systems)
  INTENSITIES T #Calculate IR/Raman intensities
  FULLY_PERIODIC T #Avoiding to project out rotation component from Hessian matrix
  &PRINT
    &MOLDEN_VIB #Output .mol (Molden file) for visualizing vibrational modes
    &END MOLDEN_VIB
  &END PRINT
&END VIBRATIONAL_ANALYSIS
