#Generated by Multiwfn (http://sobereva.com/multiwfn)
&GLOBAL
  PROJECT M2
  PRINT_LEVEL LOW
  RUN_TYPE GEO_OPT
&END GLOBAL

&FORCE_EVAL
  METHOD Quickstep
  &SUBSYS
    &CELL
      A    10.45680000     0.00000000     0.00000000
      B     0.00000000     9.08020000     0.00000000
      C     0.00000000     0.00000000    19.79396674
      PERIODIC XY #Direction(s) of applied PBC (geometry aspect)
    &END CELL
    &COORD
      Ti          0.05551243    0.01023956    3.65012315
      Ti          2.64028993    1.52590963    3.63619461
      Ti          1.79386404    0.00000000    1.03838328
      Ti          4.40775034    1.51336667    1.03770915
      C           0.79147519    1.51336667    2.34200774
      C           3.40515235    0.00000000    2.34268186
      O           1.67679243    9.07753996    4.58174033
      O           4.27947708    1.51643599    4.57507455
      O          10.38799426    0.00000000    0.12992428
      O           2.54560339    1.51336667    0.12975596
      Ti          5.26229697    0.00529630    3.66003682
      Ti          7.88867360    1.50401981    3.63693083
      Ti          7.02226404    0.00000000    1.03838328
      Ti          9.63615034    1.51336667    1.03770915
      C           6.01987519    1.51336667    2.34200774
      C           8.63355235    0.00000000    2.34268186
      O           6.93238460    9.08020000    4.58488962
      O           9.52940711    1.51508177    4.58300916
      O           5.15959426    0.00000000    0.12992428
      O           7.77400339    1.51336667    0.12975596
      Ti          0.02689374    3.03819551    3.65375556
      Ti          2.57867961    4.52779651    3.56742617
      Ti          1.79386404    3.02673333    1.03838328
      Ti          4.40775034    4.54010000    1.03770915
      C           0.79147519    4.54010000    2.34200774
      C           3.40515235    3.02673333    2.34268186
      O           1.68024212    3.02290927    4.57970763
      O           4.26545389    4.53840019    4.73807049
      O          10.38799426    3.02673333    0.12992428
      O           2.54560339    4.54010000    0.12975596
      Ti          5.25108300    2.98178622    3.58116575
      Ti          7.88042099    4.54010000    3.54131094
      Ti          7.02226404    3.02673333    1.03838328
      Ti          9.63615034    4.54010000    1.03770915
      C           6.01987519    4.54010000    2.34200774
      C           8.63355235    3.02673333    2.34268186
      O           6.87169741    3.10238790    4.60240312
      O           9.52791399    4.54517075    4.57044807
      O           5.15959426    3.02673333    0.12992428
      O           7.77400339    4.54010000    0.12975596
      Ti          0.03930397    6.04826628    3.65374792
      Ti          2.63483869    7.58281709    3.52109289
      Ti          1.79386404    6.05346667    1.03838328
      Ti          4.40775034    7.56683333    1.03770915
      C           0.79147519    7.56683333    2.34200774
      C           3.40515235    6.05346667    2.34268186
      O           1.74451066    6.11728843    4.60867408
      O           4.25902128    7.54942556    4.59715945
      O          10.38799426    6.05346667    0.12992428
      O           2.54560339    7.56683333    0.12975596
      Ti          5.26745165    6.09457303    3.55981191
      Ti          7.89978657    7.58022705    3.63683037
      Ti          7.02226404    6.05346667    1.03838328
      Ti          9.63615034    7.56683333    1.03770915
      C           6.01987519    7.56683333    2.34200774
      C           8.63355235    6.05346667    2.34268186
      O           6.87362805    5.98108443    4.60309726
      O           9.53195387    7.56305022    4.58587668
      O           5.15959426    6.05346667    0.12992428
      O           7.77400339    7.56683333    0.12975596
      Li          4.26444100    7.55732571    6.01985085
    &END COORD
    &KIND Ti
      ELEMENT Ti
      BASIS_SET DZVP-MOLOPT-SR-GTH-q12
      POTENTIAL GTH-PBE
    &END KIND
    &KIND C
      ELEMENT C
      BASIS_SET DZVP-MOLOPT-SR-GTH-q4
      POTENTIAL GTH-PBE
    &END KIND
    &KIND O
      ELEMENT O
      BASIS_SET DZVP-MOLOPT-SR-GTH-q6
      POTENTIAL GTH-PBE
    &END KIND
    &KIND Li
      ELEMENT Li
      BASIS_SET DZVP-MOLOPT-SR-GTH-q3
      POTENTIAL GTH-PBE
    &END KIND
  &END SUBSYS

  &DFT
    BASIS_SET_FILE_NAME  BASIS_MOLOPT
    POTENTIAL_FILE_NAME  POTENTIAL
#   WFN_RESTART_FILE_NAME initial-RESTART.kp
    CHARGE    0 #Net charge
    MULTIPLICITY    2 #Spin multiplicity
    UKS
    &KPOINTS
      SCHEME MONKHORST-PACK  3  3  1
    &END KPOINTS
    &QS
      EPS_DEFAULT 1.0E-12 #Set all EPS_xxx to values such that the energy will be correct up to this value
#     EXTRAPOLATION USE_PREV_P #Use converged density matrix of last geometry as initial guess
    &END QS
    &POISSON
      PERIODIC XY #Direction(s) of PBC for calculating electrostatics
      PSOLVER MT #The way to solve Poisson equation
    &END POISSON
    &XC
      &XC_FUNCTIONAL PBE
      &END XC_FUNCTIONAL
      &VDW_POTENTIAL
        POTENTIAL_TYPE PAIR_POTENTIAL
        &PAIR_POTENTIAL
          PARAMETER_FILE_NAME dftd3.dat
          TYPE DFTD3(BJ)
          REFERENCE_FUNCTIONAL PBE
          #CALCULATE_C9_TERM T #Calculate C9-related three-body term, more accurate for large system
        &END PAIR_POTENTIAL
      &END VDW_POTENTIAL
    &END XC
    &MGRID
      CUTOFF  400
      REL_CUTOFF  55
    &END MGRID
    &SCF
      MAX_SCF 128
      EPS_SCF 1.0E-06 #Convergence threshold of density matrix of inner SCF
#     SCF_GUESS RESTART #Use wavefunction from WFN_RESTART_FILE_NAME file as initial guess
#     IGNORE_CONVERGENCE_FAILURE #Continue calculation even if SCF not converged, works for version >= 2024.1
      &DIAGONALIZATION
        ALGORITHM STANDARD #Algorithm for diagonalization
      &END DIAGONALIZATION
      &MIXING #How to mix old and new density matrices
        METHOD BROYDEN_MIXING #PULAY_MIXING is also a good alternative
        ALPHA 0.4 #Default. Mixing 40% of new density matrix with the old one
        NBROYDEN 8 #Default is 4. Number of previous steps stored for the actual mixing scheme
      &END MIXING
      &SMEAR
        METHOD FERMI_DIRAC
        ELECTRONIC_TEMPERATURE 300 #Electronic temperature of Fermi-Dirac smearing in K
      &END SMEAR
      ADDED_MOS    31    31 #Number of virtual MOs to solve for alpha and beta spins
      &PRINT
        &RESTART #Note: Use "&RESTART OFF" can prevent generating .wfn file
          BACKUP_COPIES 0 #Maximum number of backup copies of wfn file. 0 means never
        &END RESTART
      &END PRINT
    &END SCF
  &END DFT
&END FORCE_EVAL

&MOTION
  &GEO_OPT
    TYPE MINIMIZATION #Search for minimum
    KEEP_SPACE_GROUP F #If T, then space group will be detected and preserved
    OPTIMIZER BFGS #Can also be CG (more robust for difficult cases) or LBFGS
    &BFGS
      TRUST_RADIUS 0.2 #Trust radius (maximum stepsize) in Angstrom
#     RESTART_HESSIAN T #If read initial Hessian, uncomment this line and specify the file in the next line
#     RESTART_FILE_NAME to_be_specified
    &END BFGS
    MAX_ITER 500 #Maximum number of geometry optimization
    MAX_DR 3E-3 #Maximum geometry change
    RMS_DR 1.5E-3 #RMS geometry change
    MAX_FORCE 4.5E-4 #Maximum force
    RMS_FORCE 3E-4 #RMS force
  &END GEO_OPT
  &CONSTRAINT
    &FIXED_ATOMS #Set atoms to be fixed
      COMPONENTS_TO_FIX XYZ #Which fractional components will be fixed, can be X, Y, Z, XY, XZ, YZ, XYZ
      LIST      3     4     5     6     9    10    13    14    15    16    19    20 \
          23    24    25    26    29    30    33    34    35    36    39    40 \
          43    44    45    46    49    50    53    54    55    56    59    60
    &END FIXED_ATOMS
  &END CONSTRAINT
  &PRINT
    &TRAJECTORY
      FORMAT xyz
    &END TRAJECTORY
    &RESTART
      BACKUP_COPIES 0 #Maximum number of backing up restart file, 0 means never
    &END RESTART
  &END PRINT
&END MOTION
