#Generated by Multiwfn (http://sobereva.com/multiwfn)
&GLOBAL
  PROJECT freq
  PRINT_LEVEL MEDIUM
  RUN_TYPE VIBRATIONAL_ANALYSIS
&END GLOBAL

&FORCE_EVAL
  METHOD Quickstep
  &SUBSYS
    &CELL
      A    10.45680000     0.00000000     0.00000000
      B     0.00000000     9.08020000     0.00000000
      C     0.00000000     0.00000000    19.79396700
      PERIODIC XY #Direction(s) of applied PBC (geometry aspect)
    &END CELL
    &COORD
      Ti         -0.05941586    0.00152593    3.62777864
      Ti          2.54715676    1.51331190    3.62415104
      Ti          1.79386404    0.00000000    1.03838328
      Ti          4.40775034    1.51336667    1.03770915
      C           0.79147519    1.51336667    2.34200774
      C           3.40515235    0.00000000    2.34268186
      O           1.67474317    9.07698383    4.54542904
      O           4.27483485    1.51340295    4.54713240
      O          10.38799426    0.00000000    0.12992428
      O           2.54560339    1.51336667    0.12975596
      Ti          5.16350689    0.00104700    3.63338668
      Ti          7.78132658    1.51333926    3.62585120
      Ti          7.02226404    0.00000000    1.03838328
      Ti          9.63615034    1.51336667    1.03770915
      C           6.01987519    1.51336667    2.34200774
      C           8.63355235    0.00000000    2.34268186
      O           6.87805256    9.07577243    4.55239178
      O           9.52191103    1.51335966    4.54504874
      O           5.15959426    0.00000000    0.12992428
      O           7.77400339    1.51336667    0.12975596
      Ti         -0.05915610    3.02508410    3.62762089
      Ti          2.55715877    4.53952910    3.63280037
      Ti          1.79386404    3.02673333    1.03838328
      Ti          4.40775034    4.54010000    1.03770915
      C           0.79147519    4.54010000    2.34200774
      C           3.40515235    3.02673333    2.34268186
      O           1.67474062    3.02996901    4.54542321
      O           4.33758182    4.60901127    4.61824775
      O          10.38799426    3.02673333    0.12992428
      O           2.54560339    4.54010000    0.12975596
      Ti          5.16307718    3.02600702    3.63478375
      Ti          7.78573150    4.54072096    3.63818004
      Ti          7.02226404    3.02673333    1.03838328
      Ti          9.63615034    4.54010000    1.03770915
      C           6.01987519    4.54010000    2.34200774
      C           8.63355235    3.02673333    2.34268186
      O           6.87833990    3.03102902    4.55227325
      O           9.52013985    4.54229955    4.54693438
      O           5.15959426    3.02673333    0.12992428
      O           7.77400339    4.54010000    0.12975596
      Ti         -0.05401354    6.05329337    3.62636192
      Ti          2.55623189    7.56734110    3.63208868
      Ti          1.79386404    6.05346667    1.03838328
      Ti          4.40775034    7.56683333    1.03770915
      C           0.79147519    7.56683333    2.34200774
      C           3.40515235    6.05346667    2.34268186
      O           1.67788281    6.05353827    4.55085660
      O           4.33778427    7.49856684    4.61907627
      O          10.38799426    6.05346667    0.12992428
      O           2.54560339    7.56683333    0.12975596
      Ti          5.17279465    6.05212636    3.45187075
      Ti          7.78569779    7.56592434    3.63767794
      Ti          7.02226404    6.05346667    1.03838328
      Ti          9.63615034    7.56683333    1.03770915
      C           6.01987519    7.56683333    2.34200774
      C           8.63355235    6.05346667    2.34268186
      O           6.85257329    6.05394325    4.61835318
      O           9.52012678    7.56470000    4.54686915
      O           5.15959426    6.05346667    0.12992428
      O           7.77400339    7.56683333    0.12975596
      Li          5.14796200    6.07908546    5.92676810
    &END COORD
    &KIND Ti
      ELEMENT Ti
      BASIS_SET DZVP-MOLOPT-SR-GTH-q12
      POTENTIAL GTH-PBE
    &END KIND
    &KIND C
      ELEMENT C
      BASIS_SET DZVP-MOLOPT-SR-GTH-q4
      POTENTIAL GTH-PBE
    &END KIND
    &KIND O
      ELEMENT O
      BASIS_SET DZVP-MOLOPT-SR-GTH-q6
      POTENTIAL GTH-PBE
    &END KIND
    &KIND Li
      ELEMENT Li
      BASIS_SET DZVP-MOLOPT-SR-GTH-q3
      POTENTIAL GTH-PBE
    &END KIND
  &END SUBSYS

  &DFT
    BASIS_SET_FILE_NAME  BASIS_MOLOPT
    POTENTIAL_FILE_NAME  POTENTIAL
#   WFN_RESTART_FILE_NAME freq-RESTART.kp
    CHARGE    0 #Net charge
    MULTIPLICITY    2 #Spin multiplicity
    UKS
    &KPOINTS
      SCHEME MONKHORST-PACK  3  3  1
    &END KPOINTS
    &QS
      EPS_DEFAULT 1.0E-14 #Set all EPS_xxx to values such that the energy will be correct up to this value
#     EXTRAPOLATION USE_PREV_P #Use converged density matrix of last geometry as initial guess
    &END QS
    &POISSON
      PERIODIC XY #Direction(s) of PBC for calculating electrostatics
      PSOLVER MT #The way to solve Poisson equation
    &END POISSON
    &XC
      &XC_FUNCTIONAL PBE
      &END XC_FUNCTIONAL
      &VDW_POTENTIAL
        POTENTIAL_TYPE PAIR_POTENTIAL
        &PAIR_POTENTIAL
          PARAMETER_FILE_NAME dftd3.dat
          TYPE DFTD3(BJ)
          REFERENCE_FUNCTIONAL PBE
          #CALCULATE_C9_TERM T #Calculate C9-related three-body term, more accurate for large system
        &END PAIR_POTENTIAL
      &END VDW_POTENTIAL
    &END XC
    &MGRID
      CUTOFF  400
      REL_CUTOFF  55
    &END MGRID
    &SCF
      MAX_SCF 128
      EPS_SCF 1.0E-07 #Convergence threshold of density matrix of inner SCF
#     SCF_GUESS RESTART #Use wavefunction from WFN_RESTART_FILE_NAME file as initial guess
#     IGNORE_CONVERGENCE_FAILURE #Continue calculation even if SCF not converged, works for version >= 2024.1
      &DIAGONALIZATION
        ALGORITHM STANDARD #Algorithm for diagonalization
      &END DIAGONALIZATION
      &MIXING #How to mix old and new density matrices
        METHOD BROYDEN_MIXING #PULAY_MIXING is also a good alternative
        ALPHA 0.4 #Default. Mixing 40% of new density matrix with the old one
        NBROYDEN 8 #Default is 4. Number of previous steps stored for the actual mixing scheme
      &END MIXING
      &SMEAR
        METHOD FERMI_DIRAC
        ELECTRONIC_TEMPERATURE 300 #Electronic temperature of Fermi-Dirac smearing in K
      &END SMEAR
      ADDED_MOS    31    31 #Number of virtual MOs to solve for alpha and beta spins
      &PRINT
        &RESTART OFF #Do not generate wfn file to suppress meaningless I/O cost
        &END RESTART
      &END PRINT
    &END SCF
    &PRINT
    &END PRINT
  &END DFT
&END FORCE_EVAL

&MOTION
  &CONSTRAINT
    &FIXED_ATOMS #Set atoms to be fixed
      COMPONENTS_TO_FIX XYZ #Which fractional components will be fixed, can be X, Y, Z, XY, XZ, YZ, XYZ
      LIST       1..60
    &END FIXED_ATOMS
  &END CONSTRAINT
  &PRINT
    &RESTART
      BACKUP_COPIES 0 #Maximum number of backing up restart file, 0 means never
    &END RESTART
  &END PRINT
&END MOTION
&VIBRATIONAL_ANALYSIS
  DX 0.01 #Step size of finite difference. This is default (Bohr)
  NPROC_REP 24 #Number of processors to be used per replica. This is default
  TC_PRESSURE 101325 #1 atm. Pressure for calculate thermodynamic data (Pa)
  TC_TEMPERATURE 298.15 #Temperature for calculate thermodynamic data (K)
  THERMOCHEMISTRY #Print thermochemistry information (only valid for isolated systems)
  INTENSITIES F #Calculate IR/Raman intensities
  FULLY_PERIODIC T #Avoiding to project out rotation component from Hessian matrix
  &PRINT
    &MOLDEN_VIB #Output .mol (Molden file) for visualizing vibrational modes
    &END MOLDEN_VIB
  &END PRINT
&END VIBRATIONAL_ANALYSIS
