#Generated by Multiwfn (http://sobereva.com/multiwfn)
&GLOBAL
  PROJECT Ti2C
  PRINT_LEVEL LOW
  RUN_TYPE ENERGY
&END GLOBAL

&FORCE_EVAL
  METHOD Quickstep
  &SUBSYS
    &CELL
      A    10.45677400     0.00000000     0.00000000
      B     0.00000000     9.08021100     0.00000000
      C     0.00000000     0.00000000    20.82710944
      PERIODIC XY #Direction(s) of applied PBC (geometry aspect)
    &END CELL
    &COORD
      Ti          0.04515015    0.00000000    3.63405486
      Ti          2.65959305    1.51336850    3.63594137
      Ti          1.79382444    0.00000000    1.03839390
      Ti          4.40777096    1.51336850    1.03776012
      C           0.79150522    1.51336850    2.34192444
      C           3.40511858    0.00000000    2.34275150
      O           1.70123128    0.00000000    4.54332149
      O           4.31665690    1.51336850    4.54276439
      O          10.38794438    0.00000000    0.12989283
      O           2.54564349    1.51336850    0.12976762
      Ti          5.27353715    0.00000000    3.63405486
      Ti          7.88798005    1.51336850    3.63594137
      Ti          7.02221144    0.00000000    1.03839390
      Ti          9.63615796    1.51336850    1.03776012
      C           6.01989222    1.51336850    2.34192444
      C           8.63350558    0.00000000    2.34275150
      O           6.92961828    0.00000000    4.54332149
      O           9.54504390    1.51336850    4.54276439
      O           5.15955738    0.00000000    0.12989283
      O           7.77403049    1.51336850    0.12976762
      Ti          0.04514639    3.02673700    3.63405755
      Ti          2.65959368    4.54010550    3.63594373
      Ti          1.79382089    3.02673700    1.03839154
      Ti          4.40777211    4.54010550    1.03776568
      C           0.79150282    4.54010550    2.34192562
      C           3.40511701    3.02673700    2.34275336
      O           1.70123097    3.02673700    4.54332217
      O           4.31665732    4.54010550    4.54276573
      O          10.38794469    3.02673700    0.12989502
      O           2.54564056    4.54010550    0.12976762
      Ti          5.27353339    3.02673700    3.63405755
      Ti          7.88798068    4.54010550    3.63594373
      Ti          7.02220789    3.02673700    1.03839154
      Ti          9.63615911    4.54010550    1.03776568
      C           6.01988982    4.54010550    2.34192562
      C           8.63350401    3.02673700    2.34275336
      O           6.92961797    3.02673700    4.54332217
      O           9.54504432    4.54010550    4.54276573
      O           5.15955769    3.02673700    0.12989502
      O           7.77402756    4.54010550    0.12976745
      Ti          0.04514639    6.05347400    3.63405755
      Ti          2.65959305    7.56684250    3.63594137
      Ti          1.79382089    6.05347400    1.03839154
      Ti          4.40777096    7.56684250    1.03776012
      C           0.79150522    7.56684250    2.34192444
      C           3.40511701    6.05347400    2.34275336
      O           1.70123097    6.05347400    4.54332217
      O           4.31665690    7.56684250    4.54276439
      O          10.38794469    6.05347400    0.12989502
      O           2.54564349    7.56684250    0.12976762
      Ti          5.27353339    6.05347400    3.63405755
      Ti          7.88798005    7.56684250    3.63594137
      Ti          7.02220789    6.05347400    1.03839154
      Ti          9.63615796    7.56684250    1.03776012
      C           6.01989222    7.56684250    2.34192444
      C           8.63350401    6.05347400    2.34275336
      O           6.92961797    6.05347400    4.54332217
      O           9.54504390    7.56684250    4.54276439
      O           5.15955769    6.05347400    0.12989502
      O           7.77403049    7.56684250    0.12976762
    &END COORD
    &KIND Ti
      ELEMENT Ti
      BASIS_SET DZVP-MOLOPT-SR-GTH-q12
      POTENTIAL GTH-PBE
    &END KIND
    &KIND C
      ELEMENT C
      BASIS_SET DZVP-MOLOPT-SR-GTH-q4
      POTENTIAL GTH-PBE
    &END KIND
    &KIND O
      ELEMENT O
      BASIS_SET DZVP-MOLOPT-SR-GTH-q6
      POTENTIAL GTH-PBE
    &END KIND
  &END SUBSYS

  &DFT
    BASIS_SET_FILE_NAME  BASIS_MOLOPT
    POTENTIAL_FILE_NAME  POTENTIAL
#   WFN_RESTART_FILE_NAME Ti2C-RESTART.kp
    CHARGE    0 #Net charge
    MULTIPLICITY    1 #Spin multiplicity
    &QS
      EPS_DEFAULT 1.0E-11 #Set all EPS_xxx to values such that the energy will be correct up to this value
    &END QS
    &POISSON
      PERIODIC XY #Direction(s) of PBC for calculating electrostatics
      PSOLVER MT #The way to solve Poisson equation
    &END POISSON
    &XC
      &XC_FUNCTIONAL PBE
      &END XC_FUNCTIONAL
      &VDW_POTENTIAL
        POTENTIAL_TYPE PAIR_POTENTIAL
        &PAIR_POTENTIAL
          PARAMETER_FILE_NAME dftd3.dat
          TYPE DFTD3(BJ)
          REFERENCE_FUNCTIONAL PBE
          #CALCULATE_C9_TERM T #Calculate C9-related three-body term, more accurate for large system
        &END PAIR_POTENTIAL
      &END VDW_POTENTIAL
    &END XC
    &MGRID
      CUTOFF  400
      REL_CUTOFF  55
    &END MGRID
    &SCF
      MAX_SCF 128
      EPS_SCF 5.0E-06 #Convergence threshold of density matrix of inner SCF
#     SCF_GUESS RESTART #Use wavefunction from WFN_RESTART_FILE_NAME file as initial guess
#     IGNORE_CONVERGENCE_FAILURE #Continue calculation even if SCF not converged, works for version >= 2024.1
      &DIAGONALIZATION
        ALGORITHM STANDARD #Algorithm for diagonalization
      &END DIAGONALIZATION
      &MIXING #How to mix old and new density matrices
        METHOD BROYDEN_MIXING #PULAY_MIXING is also a good alternative
        ALPHA 0.4 #Default. Mixing 40% of new density matrix with the old one
        NBROYDEN 8 #Default is 4. Number of previous steps stored for the actual mixing scheme
      &END MIXING
      &PRINT
        &RESTART #Note: Use "&RESTART OFF" can prevent generating .wfn file
          BACKUP_COPIES 0 #Maximum number of backup copies of wfn file. 0 means never
        &END RESTART
      &END PRINT
    &END SCF
  &END DFT
&END FORCE_EVAL
