#Generated by Multiwfn (http://sobereva.com/multiwfn)
&GLOBAL
  PROJECT Mxene_S4Li2
  PRINT_LEVEL LOW
  RUN_TYPE GEO_OPT
&END GLOBAL

&FORCE_EVAL
  METHOD Quickstep
  &SUBSYS
    &CELL
      A    10.45680000     0.00000000     0.00000000
      B     0.00000000     9.08020000     0.00000000
      C     0.00000000     0.00000000    20.82710944
      PERIODIC XY #Direction(s) of applied PBC (geometry aspect)
    &END CELL
    &COORD
      Ti         10.38512280    9.09530445    3.63450470
      Ti          2.52939279    1.52008153    3.64198614
      Ti          1.79386404    0.00000000    1.03838332
      Ti          4.40775034    1.51336667    1.03770922
      C           0.79147519    1.51336667    2.34200768
      C           3.40515235    0.00000000    2.34268178
      O           1.67164628   -0.00186532    4.55286789
      O           4.27167815    1.50957845    4.55112385
      O          10.38799426   -0.00000000    0.12992424
      O           2.54560339    1.51336667    0.12975598
      Ti          5.14741623    9.09335283    3.63384603
      Ti          7.77010512    1.52383106    3.63194991
      Ti          7.02226404   -0.00000000    1.03838332
      Ti          9.63615034    1.51336667    1.03770922
      C           6.01987519    1.51336667    2.34200768
      C           8.63355235   -0.00000000    2.34268178
      O           6.87486382    9.07701814    4.56022162
      O           9.51880729    1.51343345    4.55533374
      O           5.15959426   -0.00000000    0.12992424
      O           7.77400339    1.51336667    0.12975598
      Ti         10.39913244    3.03878870    3.64150837
      Ti          2.54879673    4.53374758    3.56497959
      Ti          1.79386404    3.02673333    1.03838332
      Ti          4.40775034    4.54010000    1.03770922
      C           0.79147519    4.54010000    2.34200768
      C           3.40515235    3.02673333    2.34268178
      O           1.67323988    3.02507205    4.55332724
      O           4.27008873    4.55245409    4.61798782
      O          10.38799426    3.02673333    0.12992424
      O           2.54560339    4.54010000    0.12975598
      Ti          5.14655310    3.03527680    3.59986437
      Ti          7.81430227    4.54878295    3.55546083
      Ti          7.02226404    3.02673333    1.03838332
      Ti          9.63615034    4.54010000    1.03770922
      C           6.01987519    4.54010000    2.34200768
      C           8.63355235    3.02673333    2.34268178
      O           6.86556611    3.09218620    4.56345650
      O           9.52672299    4.54114910    4.55395800
      O           5.15959426    3.02673333    0.12992424
      O           7.77400339    4.54010000    0.12975598
      Ti         10.41037761    6.06464872    3.64316812
      Ti          2.53663694    7.59513205    3.57261096
      Ti          1.79386404    6.05346667    1.03838332
      Ti          4.40775034    7.56683333    1.03770922
      C           0.79147519    7.56683333    2.34200768
      C           3.40515235    6.05346667    2.34268178
      O           1.75004974    6.04985096    4.62565139
      O           4.26145127    7.49343078    4.62499007
      O          10.38799426    6.05346667    0.12992424
      O           2.54560339    7.56683333    0.12975598
      Ti          5.17090862    6.07136043    3.55789497
      Ti          7.77671406    7.58325191    3.64202831
      Ti          7.02226404    6.05346667    1.03838332
      Ti          9.63615034    7.56683333    1.03770922
      C           6.01987519    7.56683333    2.34200768
      C           8.63355235    6.05346667    2.34268178
      O           6.87482700    5.98724073    4.61837564
      O           9.52422020    7.56125421    4.55642138
      O           5.15959426    6.05346667    0.12992424
      O           7.77400339    7.56683333    0.12975598
      S           4.72013522    5.18981825    7.70696257
      S           3.92398378    3.38816978    7.43289310
      S           5.54442407    1.98075744    7.40075396
      S           7.23112242    2.91500159    7.60197704
      Li          3.40467216    6.07327784    5.85719373
      Li          6.42107634    4.66698931    5.99228204
    &END COORD
    &KIND Ti
      ELEMENT Ti
      BASIS_SET DZVP-MOLOPT-SR-GTH-q12
      POTENTIAL GTH-PBE
    &END KIND
    &KIND C
      ELEMENT C
      BASIS_SET DZVP-MOLOPT-SR-GTH-q4
      POTENTIAL GTH-PBE
    &END KIND
    &KIND O
      ELEMENT O
      BASIS_SET DZVP-MOLOPT-SR-GTH-q6
      POTENTIAL GTH-PBE
    &END KIND
    &KIND S
      ELEMENT S
      BASIS_SET DZVP-MOLOPT-SR-GTH-q6
      POTENTIAL GTH-PBE
    &END KIND
    &KIND Li
      ELEMENT Li
      BASIS_SET DZVP-MOLOPT-SR-GTH-q3
      POTENTIAL GTH-PBE
    &END KIND
  &END SUBSYS

  &DFT
    BASIS_SET_FILE_NAME  BASIS_MOLOPT
    POTENTIAL_FILE_NAME  POTENTIAL
#   WFN_RESTART_FILE_NAME Mxene_S4Li2-RESTART.wfn
    CHARGE    0 #Net charge
    MULTIPLICITY    1 #Spin multiplicity
    &QS
      EPS_DEFAULT 1.0E-14 #Set all EPS_xxx to values such that the energy will be correct up to this value
    &END QS
    &POISSON
      PERIODIC XY #Direction(s) of PBC for calculating electrostatics
      PSOLVER MT #The way to solve Poisson equation
    &END POISSON
    &XC
      &XC_FUNCTIONAL PBE
      &END XC_FUNCTIONAL
      &VDW_POTENTIAL
        POTENTIAL_TYPE PAIR_POTENTIAL
        &PAIR_POTENTIAL
          PARAMETER_FILE_NAME dftd3.dat
          TYPE DFTD3(BJ)
          REFERENCE_FUNCTIONAL PBE
          #CALCULATE_C9_TERM T #Calculate C9-related three-body term, more accurate for large system
        &END PAIR_POTENTIAL
      &END VDW_POTENTIAL
    &END XC
    &MGRID
      CUTOFF  400
      REL_CUTOFF  55
    &END MGRID
    &SCF
      MAX_SCF 128
      EPS_SCF 1.0E-07 #Convergence threshold of density matrix of inner SCF
#     SCF_GUESS RESTART #Use wavefunction from WFN_RESTART_FILE_NAME file as initial guess
      IGNORE_CONVERGENCE_FAILURE #Continue calculation even if SCF not converged, works for version >= 2024.1
      &DIAGONALIZATION
        ALGORITHM STANDARD #Algorithm for diagonalization
      &END DIAGONALIZATION
      &MIXING #How to mix old and new density matrices
        METHOD BROYDEN_MIXING #PULAY_MIXING is also a good alternative
        ALPHA 0.4 #Default. Mixing 40% of new density matrix with the old one
        NBROYDEN 8 #Default is 4. Number of previous steps stored for the actual mixing scheme
      &END MIXING
      &PRINT
        &RESTART #Note: Use "&RESTART OFF" can prevent generating .wfn file
          BACKUP_COPIES 0 #Maximum number of backup copies of wfn file. 0 means never
        &END RESTART
      &END PRINT
    &END SCF
  &END DFT
&END FORCE_EVAL

&MOTION
  &GEO_OPT
    TYPE MINIMIZATION #Search for minimum
    KEEP_SPACE_GROUP F #If T, then space group will be detected and preserved
    OPTIMIZER BFGS #Can also be CG (more robust for difficult cases) or LBFGS
    &BFGS
      TRUST_RADIUS 0.2 #Trust radius (maximum stepsize) in Angstrom
#     RESTART_HESSIAN T #If read initial Hessian, uncomment this line and specify the file in the next line
#     RESTART_FILE_NAME to_be_specified
    &END BFGS
    MAX_ITER 500 #Maximum number of geometry optimization
    MAX_DR 3E-3 #Maximum geometry change
    RMS_DR 1.5E-3 #RMS geometry change
    MAX_FORCE 1E-4 #Maximum force
    RMS_FORCE 3E-4 #RMS force
  &END GEO_OPT
  &CONSTRAINT
    &FIXED_ATOMS #Set atoms to be fixed
      COMPONENTS_TO_FIX XYZ #Which fractional components will be fixed, can be X, Y, Z, XY, XZ, YZ, XYZ
      LIST      3     4     5     6     9    10    13    14    15    16    19    20 \
          23    24    25    26    29    30    33    34    35    36    39    40 \
          43    44    45    46    49    50    53    54    55    56    59    60
    &END FIXED_ATOMS
  &END CONSTRAINT
  &PRINT
    &TRAJECTORY
      FORMAT xyz
    &END TRAJECTORY
    &RESTART
      BACKUP_COPIES 0 #Maximum number of backing up restart file, 0 means never
    &END RESTART
  &END PRINT
&END MOTION
