#Generated by Multiwfn (http://sobereva.com/multiwfn)
&GLOBAL
  PROJECT energy
  PRINT_LEVEL LOW
  RUN_TYPE ENERGY
&END GLOBAL

&FORCE_EVAL
  METHOD Quickstep
  &SUBSYS
    &CELL
      A    10.45680000     0.00000000     0.00000000
      B     0.00000000     9.08020000     0.00000000
      C     0.00000000     0.00000000    24.11780261
      PERIODIC XY #Direction(s) of applied PBC (geometry aspect)
    &END CELL
    &COORD
      Ti         10.48915445    9.07660232    3.63146998
      Ti          2.60317411    1.49849579    3.60840984
      Ti          1.79386404    0.00000000    1.03838332
      Ti          4.40775034    1.51336667    1.03770922
      C           0.79147519    1.51336667    2.34200768
      C           3.40515235   -0.00000000    2.34268178
      O           1.67509097    0.00073928    4.55569671
      O           4.27144670    1.46162697    4.48207531
      O          10.38799426    0.00000000    0.12992424
      O           2.54560339    1.51336667    0.12975598
      Ti          5.25561638    9.07183679    3.62508081
      Ti          7.88204712    1.50724089    3.63656523
      Ti          7.02226404   -0.00000000    1.03838332
      Ti          9.63615034    1.51336667    1.03770922
      C           6.01987519    1.51336667    2.34200768
      C           8.63355235   -0.00000000    2.34268178
      O           6.93192595    9.07735575    4.55520097
      O           9.53108069    1.51401881    4.56114973
      O           5.15959426   -0.00000000    0.12992424
      O           7.77400339    1.51336667    0.12975598
      Ti         10.48765701    3.02348964    3.65042387
      Ti          2.66481331    4.50632851    3.55933968
      Ti          1.79386404    3.02673333    1.03838332
      Ti          4.40775034    4.54010000    1.03770922
      C           0.79147519    4.54010000    2.34200768
      C           3.40515235    3.02673333    2.34268178
      O           1.68138491    3.02842922    4.55291468
      O           4.27587413    4.60901403    4.63701452
      O          10.38799426    3.02673333    0.12992424
      O           2.54560339    4.54010000    0.12975598
      Ti          5.25274866    2.99035114    3.58491338
      Ti          7.91091030    4.53600392    3.56925969
      Ti          7.02226404    3.02673333    1.03838332
      Ti          9.63615034    4.54010000    1.03770922
      C           6.01987519    4.54010000    2.34200768
      C           8.63355235    3.02673333    2.34268178
      O           6.87904708    3.10076652    4.56382257
      O           9.53981961    4.54555797    4.55533962
      O           5.15959426    3.02673333    0.12992424
      O           7.77400339    4.54010000    0.12975598
      Ti         10.53152997    6.03795416    3.65294379
      Ti          2.65190418    7.59055439    3.59451822
      Ti          1.79386404    6.05346667    1.03838332
      Ti          4.40775034    7.56683333    1.03770922
      C           0.79147519    7.56683333    2.34200768
      C           3.40515235    6.05346667    2.34268178
      O           1.74219447    6.04469212    4.62613137
      O           4.27878684    7.57661153    4.52758231
      O          10.38799426    6.05346667    0.12992424
      O           2.54560339    7.56683333    0.12975598
      Ti          5.26428149    6.07522289    3.53115137
      Ti          7.89389474    7.56334125    3.64785059
      Ti          7.02226404    6.05346667    1.03838332
      Ti          9.63615034    7.56683333    1.03770922
      C           6.01987519    7.56683333    2.34200768
      C           8.63355235    6.05346667    2.34268178
      O           6.91924868    5.99941957    4.55703501
      O           9.53613577    7.56322946    4.55787694
      O           5.15959426    6.05346667    0.12992424
      O           7.77400339    7.56683333    0.12975598
      S           5.01708614    6.82037622    6.92693668
      S           4.86337443    5.29476479    8.18865729
      S           6.14710994    3.69953245    7.87619637
      S           5.12795656    2.13112981    6.80628281
      S           3.23935348    1.97094630    7.54552492
      S           2.11187272    3.58919215    7.26548150
      Li          6.10599345    4.78450725    5.80139689
      Li          3.09819778    5.57050366    6.08336856
    &END COORD
    &KIND Ti
      ELEMENT Ti
      BASIS_SET DZVP-MOLOPT-SR-GTH-q12
      POTENTIAL GTH-PBE
    &END KIND
    &KIND C
      ELEMENT C
      BASIS_SET DZVP-MOLOPT-SR-GTH-q4
      POTENTIAL GTH-PBE
    &END KIND
    &KIND O
      ELEMENT O
      BASIS_SET DZVP-MOLOPT-SR-GTH-q6
      POTENTIAL GTH-PBE
    &END KIND
    &KIND S
      ELEMENT S
      BASIS_SET DZVP-MOLOPT-SR-GTH-q6
      POTENTIAL GTH-PBE
    &END KIND
    &KIND Li
      ELEMENT Li
      BASIS_SET DZVP-MOLOPT-SR-GTH-q3
      POTENTIAL GTH-PBE
    &END KIND
  &END SUBSYS

  &DFT
    BASIS_SET_FILE_NAME  BASIS_MOLOPT
    POTENTIAL_FILE_NAME  POTENTIAL
#   WFN_RESTART_FILE_NAME energy-RESTART.wfn
    CHARGE    0 #Net charge
    MULTIPLICITY    1 #Spin multiplicity
    &QS
      EPS_DEFAULT 1.0E-11 #Set all EPS_xxx to values such that the energy will be correct up to this value
    &END QS
    &POISSON
      PERIODIC XY #Direction(s) of PBC for calculating electrostatics
      PSOLVER MT #The way to solve Poisson equation
    &END POISSON
    &XC
      &XC_FUNCTIONAL PBE
      &END XC_FUNCTIONAL
      &VDW_POTENTIAL
        POTENTIAL_TYPE PAIR_POTENTIAL
        &PAIR_POTENTIAL
          PARAMETER_FILE_NAME dftd3.dat
          TYPE DFTD3(BJ)
          REFERENCE_FUNCTIONAL PBE
          #CALCULATE_C9_TERM T #Calculate C9-related three-body term, more accurate for large system
        &END PAIR_POTENTIAL
      &END VDW_POTENTIAL
    &END XC
    &MGRID
      CUTOFF  350
      REL_CUTOFF  50
    &END MGRID
    &SCF
      MAX_SCF 128
      EPS_SCF 5.0E-06 #Convergence threshold of density matrix of inner SCF
#     SCF_GUESS RESTART #Use wavefunction from WFN_RESTART_FILE_NAME file as initial guess
#     IGNORE_CONVERGENCE_FAILURE #Continue calculation even if SCF not converged, works for version >= 2024.1
      &DIAGONALIZATION
        ALGORITHM STANDARD #Algorithm for diagonalization
      &END DIAGONALIZATION
      &MIXING #How to mix old and new density matrices
        METHOD BROYDEN_MIXING #PULAY_MIXING is also a good alternative
        ALPHA 0.4 #Default. Mixing 40% of new density matrix with the old one
        NBROYDEN 8 #Default is 4. Number of previous steps stored for the actual mixing scheme
      &END MIXING
      &PRINT
        &RESTART #Note: Use "&RESTART OFF" can prevent generating .wfn file
          BACKUP_COPIES 0 #Maximum number of backup copies of wfn file. 0 means never
        &END RESTART
      &END PRINT
    &END SCF
  &END DFT
&END FORCE_EVAL
