#Generated by Multiwfn (http://sobereva.com/multiwfn)
&GLOBAL
  PROJECT NEB
  PRINT_LEVEL LOW
  RUN_TYPE BAND
&END GLOBAL

&FORCE_EVAL
  METHOD Quickstep
  &SUBSYS
    &CELL
      A    10.45680000     0.00000000     0.00000000
      B     0.00000000     9.08020000     0.00000000
      C     0.00000000     0.00000000    19.793967
      PERIODIC XY #Direction(s) of applied PBC (geometry aspect)
    &END CELL
    &COORD
	Ti     -0.06507167      0.00297200      3.63096080
	Ti      2.53454753      1.51295325      3.63691430
	Ti      1.79386404      0.00000000      1.03838328
	Ti      4.40775034      1.51336667      1.03770915
	C       0.79147519      1.51336667      2.34200774
	C       3.40515235      0.00000000      2.34268186
	O       1.67199577      9.07964162      4.54320828
	O       4.27250465      1.51333710      4.54565214
	O      10.38799426      0.00000000      0.12992428
	O       2.54560339      1.51336667      0.12975596
	Ti      5.16131709      0.00162035      3.63466566
	Ti      7.77833282      1.51340263      3.62623838
	Ti      7.02226404      0.00000000      1.03838328
	Ti      9.63615034      1.51336667      1.03770915
	C       6.01987519      1.51336667      2.34200774
	C       8.63355235     -0.00000000      2.34268186
	O       6.87290306      9.07727005      4.54713454
	O       9.52159943      1.51332187      4.54565636
	O       5.15959426     -0.00000000      0.12992428
	O       7.77400339      1.51336667      0.12975596
	Ti     -0.06480454      3.02351595      3.63044605
	Ti      2.53891693      4.52112501      3.56047783
	Ti      1.79386404      3.02673333      1.03838328
	Ti      4.40775034      4.54010000      1.03770915
	C       0.79147519      4.54010000      2.34200774
	C       3.40515235      3.02673333      2.34268186
	O       1.67198648      3.02734988      4.54307910
	O       4.25942987      4.60955274      4.61821625
	O      10.38799426      3.02673333      0.12992428
	O       2.54560339      4.54010000      0.12975596
	Ti      5.16112171      3.02541149      3.63488575
	Ti      7.78410597      4.54149039      3.63534901
	Ti      7.02226404      3.02673333      1.03838328
	Ti      9.63615034      4.54010000      1.03770915
	C       6.01987519      4.54010000      2.34200774
	C       8.63355235      3.02673333      2.34268186
	O       6.87284182      3.02959295      4.54706661
	O       9.52672270      4.54278113      4.54711174
	O       5.15959426      3.02673333      0.12992428
	O       7.77400339      4.54010000      0.12975596
	Ti     -0.05642773      6.05347719      3.63181988
	Ti      2.53922134      7.58554763      3.56026718
	Ti      1.79386404      6.05346667      1.03838328
	Ti      4.40775034      7.56683333      1.03770915
	C       0.79147519      7.56683333      2.34200774
	C       3.40515235      6.05346667      2.34268186
	O       1.75066789      6.05334316      4.61944335
	O       4.25940181      7.49730784      4.61807177
	O      10.38799426      6.05346667      0.12992428
	O       2.54560339      7.56683333      0.12975596
	Ti      5.18873525      6.05348215      3.56366805
	Ti      7.78391746      7.56534002      3.63543929
	Ti      7.02226404      6.05346667      1.03838328
	Ti      9.63615034      7.56683333      1.03770915
	C       6.01987519      7.56683333      2.34200774
	C       8.63355235      6.05346667      2.34268186
	O       6.88436266      6.05346090      4.54441992
	O       9.52667653      7.56413544      4.54711424
	O       5.15959426      6.05346667      0.12992428
	O       7.77400339      7.56683333      0.12975596
	Li      3.42368700      6.05341710      5.75934221
    &END COORD
    &KIND Ti
      ELEMENT Ti
      BASIS_SET DZVP-MOLOPT-SR-GTH-q12
      POTENTIAL GTH-PBE
    &END KIND
    &KIND C
      ELEMENT C
      BASIS_SET DZVP-MOLOPT-SR-GTH-q4
      POTENTIAL GTH-PBE
    &END KIND
    &KIND O
      ELEMENT O
      BASIS_SET DZVP-MOLOPT-SR-GTH-q6
      POTENTIAL GTH-PBE
    &END KIND
    &KIND Li
      ELEMENT Li
      BASIS_SET DZVP-MOLOPT-SR-GTH-q3
      POTENTIAL GTH-PBE
    &END KIND
  &END SUBSYS

  &DFT
    BASIS_SET_FILE_NAME  BASIS_MOLOPT
    POTENTIAL_FILE_NAME  POTENTIAL
#   WFN_RESTART_FILE_NAME NEB-RESTART.kp
    CHARGE    0 #Net charge
    MULTIPLICITY    1 #Spin multiplicity
    &KPOINTS
      SCHEME MONKHORST-PACK  3  3  1
    &END KPOINTS
    &QS
      EXTRAPOLATION USE_PREV_P
      EPS_DEFAULT 1.0E-12 #Set all EPS_xxx to values such that the energy will be correct up to this value
#     EXTRAPOLATION USE_PREV_P #Use converged density matrix of last geometry as initial guess
    &END QS
    &POISSON
      PERIODIC XY #Direction(s) of PBC for calculating electrostatics
      PSOLVER MT #The way to solve Poisson equation
    &END POISSON
    &XC
      &XC_FUNCTIONAL PBE
      &END XC_FUNCTIONAL
      &VDW_POTENTIAL
        POTENTIAL_TYPE PAIR_POTENTIAL
        &PAIR_POTENTIAL
          PARAMETER_FILE_NAME dftd3.dat
          TYPE DFTD3(BJ)
          REFERENCE_FUNCTIONAL PBE
          #CALCULATE_C9_TERM T #Calculate C9-related three-body term, more accurate for large system
        &END PAIR_POTENTIAL
      &END VDW_POTENTIAL
    &END XC
    &MGRID
      CUTOFF  400
      REL_CUTOFF  55
    &END MGRID
    &SCF
      MAX_SCF 128
      EPS_SCF 1.0E-06 #Convergence threshold of density matrix of inner SCF
#     SCF_GUESS RESTART #Use wavefunction from WFN_RESTART_FILE_NAME file as initial guess
#     IGNORE_CONVERGENCE_FAILURE #Continue calculation even if SCF not converged, works for version >= 2024.1
      &DIAGONALIZATION
        ALGORITHM STANDARD #Algorithm for diagonalization
      &END DIAGONALIZATION
      &MIXING #How to mix old and new density matrices
        METHOD BROYDEN_MIXING #PULAY_MIXING is also a good alternative
        ALPHA 0.4 #Default. Mixing 40% of new density matrix with the old one
        NBROYDEN 8 #Default is 4. Number of previous steps stored for the actual mixing scheme
      &END MIXING
      &SMEAR
        METHOD FERMI_DIRAC
        ELECTRONIC_TEMPERATURE 300 #Electronic temperature of Fermi-Dirac smearing in K
      &END SMEAR
      ADDED_MOS    32 #Number of virtual MOs to solve
      &PRINT
        &RESTART #Note: Use "&RESTART OFF" can prevent generating .wfn file
          BACKUP_COPIES 0 #Maximum number of backup copies of wfn file. 0 means never
        &END RESTART
      &END PRINT
    &END SCF
  &END DFT
&END FORCE_EVAL

&MOTION
  &BAND
    K_SPRING 0.05 #Spring constant
    BAND_TYPE CI-NEB #The type of BAND calculation
    NUMBER_OF_REPLICA 7 #The number of replica to use in the BAND
    NPROC_REP 3 #The number of processors to be used per replica
    ALIGN_FRAMES F #Enables the alignment of the frames at the beginning of the BAND calculation
    ROTATE_FRAMES F #Compute at each BAND step the RMSD and rotate the frames in order to minimize it
    &CI_NEB
      NSTEPS_IT  5 #The number of steps of IT-NEB to perform before switching on CI-NEB
    &END
    &OPTIMIZE_BAND
      OPTIMIZE_END_POINTS F #If also optimizing the end points of the band
      &DIIS #Parameters of optimizing band via DIIS method
        MAX_STEPS 300 #Maximum number of optimization steps
        MAX_STEPSIZE 2.0 #Maximum stepsize used for the line search, may be reduced to stabilize line search for difficult initial geometries
      &END DIIS
    &END OPTIMIZE_BAND
    &PROGRAM_RUN_INFO #Print basic information during running the BAND task
      INITIAL_CONFIGURATION_INFO F #Print details of constructing initial configurations
    &END PROGRAM_RUN_INFO
    &CONVERGENCE_INFO #Print convergence criteria during the BAND run in [proj]-BAND**.out files
    &END CONVERGENCE_INFO
    &CONVERGENCE_CONTROL #Setup parameters to control the convergence criteria for BAND
      MAX_DR 2E-4
      MAX_FORCE 4.5E-4
      RMS_DR 1E-4
      RMS_FORCE 3E-4
    &END CONVERGENCE_CONTROL
    #Specify coordinates of reactant and product structures, and possibly one or more intermediate structure(s) between them
    &REPLICA
      COORD_FILE_NAME initial.xyz
    &END
    &REPLICA
      COORD_FILE_NAME M1.xyz
    &END
    &REPLICA
      COORD_FILE_NAME final.xyz
    &END
  &END BAND
  &CONSTRAINT
    &FIXED_ATOMS #Set atoms to be fixed
      COMPONENTS_TO_FIX XYZ #Which fractional components will be fixed, can be X, Y, Z, XY, XZ, YZ, XYZ
      LIST      3     4     5     6     9    10    13    14    15    16    19    20 \
          23    24    25    26    29    30    33    34    35    36    39    40 \
          43    44    45    46    49    50    53    54    55    56    59    60
    &END FIXED_ATOMS
  &END CONSTRAINT
  &PRINT
    &RESTART
      BACKUP_COPIES 0 #Maximum number of backing up restart file, 0 means never
    &END RESTART
  &END PRINT
&END MOTION
