#Generated by Multiwfn (http://sobereva.com/multiwfn)
&GLOBAL
  PROJECT Mxene_S6Li2
  PRINT_LEVEL LOW
  RUN_TYPE GEO_OPT
&END GLOBAL

&FORCE_EVAL
  METHOD Quickstep
  &SUBSYS
    &CELL
      A    10.45680000     0.00000000     0.00000000
      B     0.00000000     9.08020000     0.00000000
      C     0.00000000     0.00000000    20.82710944
      PERIODIC XY #Direction(s) of applied PBC (geometry aspect)
    &END CELL
    &COORD
      Ti         10.39021113    9.07010977    3.63138577
      Ti          2.53072910    1.49602309    3.64031789
      Ti          1.79386404    0.00000000    1.03838332
      Ti          4.40775034    1.51336667    1.03770922
      C           0.79147519    1.51336667    2.34200768
      C           3.40515235    0.00000000    2.34268178
      O           1.67039415    0.00174209    4.55612719
      O           4.27742627    1.51780779    4.55543855
      O          10.38799426   -0.00000000    0.12992424
      O           2.54560339    1.51336667    0.12975598
      Ti          5.15170534    9.06680860    3.65180160
      Ti          7.77336114    1.49948689    3.63391293
      Ti          7.02226404   -0.00000000    1.03838332
      Ti          9.63615034    1.51336667    1.03770922
      C           6.01987519    1.51336667    2.34200768
      C           8.63355235    0.00000000    2.34268178
      O           6.87570667    9.08180933    4.56011392
      O           9.51933309    1.51645031    4.55860989
      O           5.15959426    0.00000000    0.12992424
      O           7.77400339    1.51336667    0.12975598
      Ti         10.39637900    3.01177782    3.64550117
      Ti          2.54529727    4.50594993    3.58083877
      Ti          1.79386404    3.02673333    1.03838332
      Ti          4.40775034    4.54010000    1.03770922
      C           0.79147519    4.54010000    2.34200768
      C           3.40515235    3.02673333    2.34268178
      O           1.67150547    3.03005609    4.55101246
      O           4.33271198    4.60767874    4.64286545
      O          10.38799426    3.02673333    0.12992424
      O           2.54560339    4.54010000    0.12975598
      Ti          5.15169412    3.00075302    3.57788770
      Ti          7.80592926    4.52824369    3.58905056
      Ti          7.02226404    3.02673333    1.03838332
      Ti          9.63615034    4.54010000    1.03770922
      C           6.01987519    4.54010000    2.34200768
      C           8.63355235    3.02673333    2.34268178
      O           6.86323094    3.10258224    4.62363641
      O           9.52722414    4.54383403    4.55774528
      O           5.15959426    3.02673333    0.12992424
      O           7.77400339    4.54010000    0.12975598
      Ti         10.42054515    6.03472734    3.64628097
      Ti          2.54356479    7.57194142    3.58750387
      Ti          1.79386404    6.05346667    1.03838332
      Ti          4.40775034    7.56683333    1.03770922
      C           0.79147519    7.56683333    2.34200768
      C           3.40515235    6.05346667    2.34268178
      O           1.74680423    6.05835312    4.62296615
      O           4.26499732    7.55428295    4.57065396
      O          10.38799426    6.05346667    0.12992424
      O           2.54560339    7.56683333    0.12975598
      Ti          5.17222276    6.05745601    3.54029919
      Ti          7.78684092    7.55075396    3.65023015
      Ti          7.02226404    6.05346667    1.03838332
      Ti          9.63615034    7.56683333    1.03770922
      C           6.01987519    7.56683333    2.34200768
      C           8.63355235    6.05346667    2.34268178
      O           6.87139176    6.02795494    4.58013995
      O           9.52356286    7.56558121    4.55834023
      O           5.15959426    6.05346667    0.12992424
      O           7.77400339    7.56683333    0.12975598
      S           5.27927477    6.21975643    7.54099522
      S           4.53766637    5.19287728    9.09313535
      S           5.32913903    3.28655275    9.17887206
      S           4.92496085    2.47171690    7.28645706
      S           2.84529797    2.36677721    7.44043067
      S           2.11733353    4.20377166    7.46260177
      Li          6.00331303    4.50442637    5.92044198
      Li          3.34955926    5.86647397    5.97756869
    &END COORD
    &KIND Ti
      ELEMENT Ti
      BASIS_SET DZVP-MOLOPT-SR-GTH-q12
      POTENTIAL GTH-PBE
    &END KIND
    &KIND C
      ELEMENT C
      BASIS_SET DZVP-MOLOPT-SR-GTH-q4
      POTENTIAL GTH-PBE
    &END KIND
    &KIND O
      ELEMENT O
      BASIS_SET DZVP-MOLOPT-SR-GTH-q6
      POTENTIAL GTH-PBE
    &END KIND
    &KIND S
      ELEMENT S
      BASIS_SET DZVP-MOLOPT-SR-GTH-q6
      POTENTIAL GTH-PBE
    &END KIND
    &KIND Li
      ELEMENT Li
      BASIS_SET DZVP-MOLOPT-SR-GTH-q3
      POTENTIAL GTH-PBE
    &END KIND
  &END SUBSYS

  &DFT
    BASIS_SET_FILE_NAME  BASIS_MOLOPT
    POTENTIAL_FILE_NAME  POTENTIAL
#   WFN_RESTART_FILE_NAME Mxene_S6Li2-RESTART.wfn
    CHARGE    0 #Net charge
    MULTIPLICITY    1 #Spin multiplicity
    &QS
      EPS_DEFAULT 1.0E-14 #Set all EPS_xxx to values such that the energy will be correct up to this value
    &END QS
    &POISSON
      PERIODIC XY #Direction(s) of PBC for calculating electrostatics
      PSOLVER MT #The way to solve Poisson equation
    &END POISSON
    &XC
      &XC_FUNCTIONAL PBE
      &END XC_FUNCTIONAL
      &VDW_POTENTIAL
        POTENTIAL_TYPE PAIR_POTENTIAL
        &PAIR_POTENTIAL
          PARAMETER_FILE_NAME dftd3.dat
          TYPE DFTD3(BJ)
          REFERENCE_FUNCTIONAL PBE
          #CALCULATE_C9_TERM T #Calculate C9-related three-body term, more accurate for large system
        &END PAIR_POTENTIAL
      &END VDW_POTENTIAL
    &END XC
    &MGRID
      CUTOFF  400
      REL_CUTOFF  55
    &END MGRID
    &SCF
      MAX_SCF 128
      EPS_SCF 1.0E-07 #Convergence threshold of density matrix of inner SCF
#     SCF_GUESS RESTART #Use wavefunction from WFN_RESTART_FILE_NAME file as initial guess
#     IGNORE_CONVERGENCE_FAILURE #Continue calculation even if SCF not converged, works for version >= 2024.1
      &DIAGONALIZATION
        ALGORITHM STANDARD #Algorithm for diagonalization
      &END DIAGONALIZATION
      &MIXING #How to mix old and new density matrices
        METHOD BROYDEN_MIXING #PULAY_MIXING is also a good alternative
        ALPHA 0.4 #Default. Mixing 40% of new density matrix with the old one
        NBROYDEN 8 #Default is 4. Number of previous steps stored for the actual mixing scheme
      &END MIXING
      &PRINT
        &RESTART #Note: Use "&RESTART OFF" can prevent generating .wfn file
          BACKUP_COPIES 0 #Maximum number of backup copies of wfn file. 0 means never
        &END RESTART
      &END PRINT
    &END SCF
  &END DFT
&END FORCE_EVAL

&MOTION
  &GEO_OPT
    TYPE MINIMIZATION #Search for minimum
    KEEP_SPACE_GROUP F #If T, then space group will be detected and preserved
    OPTIMIZER BFGS #Can also be CG (more robust for difficult cases) or LBFGS
    &BFGS
      TRUST_RADIUS 0.2 #Trust radius (maximum stepsize) in Angstrom
#     RESTART_HESSIAN T #If read initial Hessian, uncomment this line and specify the file in the next line
#     RESTART_FILE_NAME to_be_specified
    &END BFGS
    MAX_ITER 500 #Maximum number of geometry optimization
    MAX_DR 3E-3 #Maximum geometry change
    RMS_DR 1.5E-3 #RMS geometry change
    MAX_FORCE 1E-4 #Maximum force
    RMS_FORCE 3E-4 #RMS force
  &END GEO_OPT
  &CONSTRAINT
    &FIXED_ATOMS #Set atoms to be fixed
      COMPONENTS_TO_FIX XYZ #Which fractional components will be fixed, can be X, Y, Z, XY, XZ, YZ, XYZ
      LIST      3     4     5     6     9    10    13    14    15    16    19    20 \
          23    24    25    26    29    30    33    34    35    36    39    40 \
          43    44    45    46    49    50    53    54    55    56    59    60
    &END FIXED_ATOMS
  &END CONSTRAINT
  &PRINT
    &TRAJECTORY
      FORMAT xyz
    &END TRAJECTORY
    &RESTART
      BACKUP_COPIES 0 #Maximum number of backing up restart file, 0 means never
    &END RESTART
  &END PRINT
&END MOTION
